! Touchstone 2-port S-parameters  (series-through model)
! Part: 1239AS-H-100M
! Generated: 2026-06-14 20:49 UTC  by s2p tool
! Reference impedance: 50.0 Ohm
! MEASURED vendor data (re-exported).
! ESTIMATED / behavioral model - NOT manufacturer-measured data.
# Hz S RI R 50
! freq        ReS11      ImS11      ReS21      ImS21      ReS12      ImS12      ReS22      ImS22
1.024110e+05 +8.135800e-03 +6.417880e-02 +9.918642e-01 -6.417880e-02 +9.918642e-01 -6.417880e-02 +8.135800e-03 +6.417880e-02
1.072890e+05 +8.575800e-03 +6.720360e-02 +9.914242e-01 -6.720360e-02 +9.914242e-01 -6.720360e-02 +8.575800e-03 +6.720360e-02
1.123990e+05 +9.063200e-03 +7.035710e-02 +9.909368e-01 -7.035710e-02 +9.909368e-01 -7.035710e-02 +9.063200e-03 +7.035710e-02
1.177520e+05 +9.535600e-03 +7.366160e-02 +9.904644e-01 -7.366160e-02 +9.904644e-01 -7.366160e-02 +9.535600e-03 +7.366160e-02
1.233600e+05 +1.008820e-02 +7.713140e-02 +9.899118e-01 -7.713140e-02 +9.899118e-01 -7.713140e-02 +1.008820e-02 +7.713140e-02
1.292360e+05 +1.070860e-02 +8.073060e-02 +9.892914e-01 -8.073060e-02 +9.892914e-01 -8.073060e-02 +1.070860e-02 +8.073060e-02
1.353910e+05 +1.140280e-02 +8.451060e-02 +9.885972e-01 -8.451060e-02 +9.885972e-01 -8.451060e-02 +1.140280e-02 +8.451060e-02
1.418390e+05 +1.211320e-02 +8.845930e-02 +9.878868e-01 -8.845930e-02 +9.878868e-01 -8.845930e-02 +1.211320e-02 +8.845930e-02
1.485950e+05 +1.296690e-02 +9.257840e-02 +9.870331e-01 -9.257840e-02 +9.870331e-01 -9.257840e-02 +1.296690e-02 +9.257840e-02
1.556720e+05 +1.383210e-02 +9.690020e-02 +9.861679e-01 -9.690020e-02 +9.861679e-01 -9.690020e-02 +1.383210e-02 +9.690020e-02
1.630860e+05 +1.478340e-02 +1.013876e-01 +9.852166e-01 -1.013876e-01 +9.852166e-01 -1.013876e-01 +1.478340e-02 +1.013876e-01
1.708540e+05 +1.582760e-02 +1.060914e-01 +9.841724e-01 -1.060914e-01 +9.841724e-01 -1.060914e-01 +1.582760e-02 +1.060914e-01
1.789910e+05 +1.698300e-02 +1.109787e-01 +9.830170e-01 -1.109787e-01 +9.830170e-01 -1.109787e-01 +1.698300e-02 +1.109787e-01
1.875160e+05 +1.823660e-02 +1.161157e-01 +9.817634e-01 -1.161157e-01 +9.817634e-01 -1.161157e-01 +1.823660e-02 +1.161157e-01
1.964470e+05 +1.962940e-02 +1.214426e-01 +9.803706e-01 -1.214426e-01 +9.803706e-01 -1.214426e-01 +1.962940e-02 +1.214426e-01
2.058030e+05 +2.110200e-02 +1.270227e-01 +9.788980e-01 -1.270227e-01 +9.788980e-01 -1.270227e-01 +2.110200e-02 +1.270227e-01
2.156050e+05 +2.275230e-02 +1.328011e-01 +9.772477e-01 -1.328011e-01 +9.772477e-01 -1.328011e-01 +2.275230e-02 +1.328011e-01
2.258740e+05 +2.459070e-02 +1.388246e-01 +9.754093e-01 -1.388246e-01 +9.754093e-01 -1.388246e-01 +2.459070e-02 +1.388246e-01
2.366320e+05 +2.649230e-02 +1.451150e-01 +9.735077e-01 -1.451150e-01 +9.735077e-01 -1.451150e-01 +2.649230e-02 +1.451150e-01
2.479020e+05 +2.862830e-02 +1.516838e-01 +9.713717e-01 -1.516838e-01 +9.713717e-01 -1.516838e-01 +2.862830e-02 +1.516838e-01
2.597090e+05 +3.099790e-02 +1.584635e-01 +9.690021e-01 -1.584635e-01 +9.690021e-01 -1.584635e-01 +3.099790e-02 +1.584635e-01
2.720790e+05 +3.353650e-02 +1.655267e-01 +9.664635e-01 -1.655267e-01 +9.664635e-01 -1.655267e-01 +3.353650e-02 +1.655267e-01
2.850370e+05 +3.625280e-02 +1.728690e-01 +9.637472e-01 -1.728690e-01 +9.637472e-01 -1.728690e-01 +3.625280e-02 +1.728690e-01
2.986130e+05 +3.930170e-02 +1.804834e-01 +9.606983e-01 -1.804834e-01 +9.606983e-01 -1.804834e-01 +3.930170e-02 +1.804834e-01
3.128350e+05 +4.258630e-02 +1.883522e-01 +9.574137e-01 -1.883522e-01 +9.574137e-01 -1.883522e-01 +4.258630e-02 +1.883522e-01
3.277350e+05 +4.615180e-02 +1.965197e-01 +9.538482e-01 -1.965197e-01 +9.538482e-01 -1.965197e-01 +4.615180e-02 +1.965197e-01
3.433440e+05 +5.001120e-02 +2.049672e-01 +9.499888e-01 -2.049672e-01 +9.499888e-01 -2.049672e-01 +5.001120e-02 +2.049672e-01
3.596960e+05 +5.424070e-02 +2.137144e-01 +9.457593e-01 -2.137144e-01 +9.457593e-01 -2.137144e-01 +5.424070e-02 +2.137144e-01
3.768280e+05 +5.888510e-02 +2.227227e-01 +9.411149e-01 -2.227227e-01 +9.411149e-01 -2.227227e-01 +5.888510e-02 +2.227227e-01
3.947750e+05 +6.384620e-02 +2.319979e-01 +9.361538e-01 -2.319979e-01 +9.361538e-01 -2.319979e-01 +6.384620e-02 +2.319979e-01
4.135780e+05 +6.918910e-02 +2.415402e-01 +9.308109e-01 -2.415402e-01 +9.308109e-01 -2.415402e-01 +6.918910e-02 +2.415402e-01
4.332750e+05 +7.499610e-02 +2.513353e-01 +9.250039e-01 -2.513353e-01 +9.250039e-01 -2.513353e-01 +7.499610e-02 +2.513353e-01
4.539110e+05 +8.135000e-02 +2.614005e-01 +9.186500e-01 -2.614005e-01 +9.186500e-01 -2.614005e-01 +8.135000e-02 +2.614005e-01
4.755300e+05 +8.818720e-02 +2.716560e-01 +9.118128e-01 -2.716560e-01 +9.118128e-01 -2.716560e-01 +8.818720e-02 +2.716560e-01
4.981780e+05 +9.549830e-02 +2.822226e-01 +9.045017e-01 -2.822226e-01 +9.045017e-01 -2.822226e-01 +9.549830e-02 +2.822226e-01
5.219060e+05 +1.034770e-01 +2.928984e-01 +8.965230e-01 -2.928984e-01 +8.965230e-01 -2.928984e-01 +1.034770e-01 +2.928984e-01
5.467630e+05 +1.119186e-01 +3.038016e-01 +8.880814e-01 -3.038016e-01 +8.880814e-01 -3.038016e-01 +1.119186e-01 +3.038016e-01
5.728040e+05 +1.211521e-01 +3.148050e-01 +8.788479e-01 -3.148050e-01 +8.788479e-01 -3.148050e-01 +1.211521e-01 +3.148050e-01
6.000850e+05 +1.309994e-01 +3.259444e-01 +8.690006e-01 -3.259444e-01 +8.690006e-01 -3.259444e-01 +1.309994e-01 +3.259444e-01
6.286660e+05 +1.414031e-01 +3.371678e-01 +8.585969e-01 -3.371678e-01 +8.585969e-01 -3.371678e-01 +1.414031e-01 +3.371678e-01
6.586080e+05 +1.527444e-01 +3.484037e-01 +8.472556e-01 -3.484037e-01 +8.472556e-01 -3.484037e-01 +1.527444e-01 +3.484037e-01
6.899760e+05 +1.647113e-01 +3.596331e-01 +8.352887e-01 -3.596331e-01 +8.352887e-01 -3.596331e-01 +1.647113e-01 +3.596331e-01
7.228370e+05 +1.773611e-01 +3.707897e-01 +8.226389e-01 -3.707897e-01 +8.226389e-01 -3.707897e-01 +1.773611e-01 +3.707897e-01
7.572650e+05 +1.909814e-01 +3.817775e-01 +8.090186e-01 -3.817775e-01 +8.090186e-01 -3.817775e-01 +1.909814e-01 +3.817775e-01
7.933310e+05 +2.052385e-01 +3.926150e-01 +7.947615e-01 -3.926150e-01 +7.947615e-01 -3.926150e-01 +2.052385e-01 +3.926150e-01
8.311160e+05 +2.202891e-01 +4.033461e-01 +7.797109e-01 -4.033461e-01 +7.797109e-01 -4.033461e-01 +2.202891e-01 +4.033461e-01
8.707000e+05 +2.363818e-01 +4.135094e-01 +7.636182e-01 -4.135094e-01 +7.636182e-01 -4.135094e-01 +2.363818e-01 +4.135094e-01
9.121690e+05 +2.530835e-01 +4.234350e-01 +7.469165e-01 -4.234350e-01 +7.469165e-01 -4.234350e-01 +2.530835e-01 +4.234350e-01
9.556140e+05 +2.706005e-01 +4.328246e-01 +7.293995e-01 -4.328246e-01 +7.293995e-01 -4.328246e-01 +2.706005e-01 +4.328246e-01
1.001127e+06 +2.889240e-01 +4.417265e-01 +7.110760e-01 -4.417265e-01 +7.110760e-01 -4.417265e-01 +2.889240e-01 +4.417265e-01
1.048809e+06 +3.079711e-01 +4.500628e-01 +6.920289e-01 -4.500628e-01 +6.920289e-01 -4.500628e-01 +3.079711e-01 +4.500628e-01
1.098761e+06 +3.277106e-01 +4.575828e-01 +6.722894e-01 -4.575828e-01 +6.722894e-01 -4.575828e-01 +3.277106e-01 +4.575828e-01
1.151093e+06 +3.480370e-01 +4.644504e-01 +6.519630e-01 -4.644504e-01 +6.519630e-01 -4.644504e-01 +3.480370e-01 +4.644504e-01
1.205916e+06 +3.690854e-01 +4.704674e-01 +6.309146e-01 -4.704674e-01 +6.309146e-01 -4.704674e-01 +3.690854e-01 +4.704674e-01
1.263351e+06 +3.905576e-01 +4.756492e-01 +6.094424e-01 -4.756492e-01 +6.094424e-01 -4.756492e-01 +3.905576e-01 +4.756492e-01
1.323522e+06 +4.124778e-01 +4.797857e-01 +5.875222e-01 -4.797857e-01 +5.875222e-01 -4.797857e-01 +4.124778e-01 +4.797857e-01
1.386558e+06 +4.348792e-01 +4.830395e-01 +5.651208e-01 -4.830395e-01 +5.651208e-01 -4.830395e-01 +4.348792e-01 +4.830395e-01
1.452597e+06 +4.574555e-01 +4.853152e-01 +5.425445e-01 -4.853152e-01 +5.425445e-01 -4.853152e-01 +4.574555e-01 +4.853152e-01
1.521781e+06 +4.801749e-01 +4.864832e-01 +5.198251e-01 -4.864832e-01 +5.198251e-01 -4.864832e-01 +4.801749e-01 +4.864832e-01
1.594259e+06 +5.030421e-01 +4.865278e-01 +4.969579e-01 -4.865278e-01 +4.969579e-01 -4.865278e-01 +5.030421e-01 +4.865278e-01
1.670190e+06 +5.259301e-01 +4.856029e-01 +4.740699e-01 -4.856029e-01 +4.740699e-01 -4.856029e-01 +5.259301e-01 +4.856029e-01
1.749738e+06 +5.486964e-01 +4.835395e-01 +4.513036e-01 -4.835395e-01 +4.513036e-01 -4.835395e-01 +5.486964e-01 +4.835395e-01
1.833074e+06 +5.713034e-01 +4.804757e-01 +4.286966e-01 -4.804757e-01 +4.286966e-01 -4.804757e-01 +5.713034e-01 +4.804757e-01
1.920379e+06 +5.934546e-01 +4.762707e-01 +4.065454e-01 -4.762707e-01 +4.065454e-01 -4.762707e-01 +5.934546e-01 +4.762707e-01
2.011842e+06 +6.153279e-01 +4.713026e-01 +3.846721e-01 -4.713026e-01 +3.846721e-01 -4.713026e-01 +6.153279e-01 +4.713026e-01
2.107661e+06 +6.367790e-01 +4.652085e-01 +3.632210e-01 -4.652085e-01 +3.632210e-01 -4.652085e-01 +6.367790e-01 +4.652085e-01
2.208044e+06 +6.576967e-01 +4.584372e-01 +3.423033e-01 -4.584372e-01 +3.423033e-01 -4.584372e-01 +6.576967e-01 +4.584372e-01
2.313208e+06 +6.780078e-01 +4.506620e-01 +3.219922e-01 -4.506620e-01 +3.219922e-01 -4.506620e-01 +6.780078e-01 +4.506620e-01
2.423381e+06 +6.976921e-01 +4.420919e-01 +3.023079e-01 -4.420919e-01 +3.023079e-01 -4.420919e-01 +6.976921e-01 +4.420919e-01
2.538801e+06 +7.165858e-01 +4.328946e-01 +2.834142e-01 -4.328946e-01 +2.834142e-01 -4.328946e-01 +7.165858e-01 +4.328946e-01
2.659718e+06 +7.347739e-01 +4.230846e-01 +2.652261e-01 -4.230846e-01 +2.652261e-01 -4.230846e-01 +7.347739e-01 +4.230846e-01
2.786394e+06 +7.522264e-01 +4.127881e-01 +2.477736e-01 -4.127881e-01 +2.477736e-01 -4.127881e-01 +7.522264e-01 +4.127881e-01
2.919104e+06 +7.687527e-01 +4.018884e-01 +2.312473e-01 -4.018884e-01 +2.312473e-01 -4.018884e-01 +7.687527e-01 +4.018884e-01
3.058134e+06 +7.845366e-01 +3.907757e-01 +2.154634e-01 -3.907757e-01 +2.154634e-01 -3.907757e-01 +7.845366e-01 +3.907757e-01
3.203786e+06 +7.995794e-01 +3.792526e-01 +2.004206e-01 -3.792526e-01 +2.004206e-01 -3.792526e-01 +7.995794e-01 +3.792526e-01
3.356375e+06 +8.138108e-01 +3.675041e-01 +1.861892e-01 -3.675041e-01 +1.861892e-01 -3.675041e-01 +8.138108e-01 +3.675041e-01
3.516231e+06 +8.271924e-01 +3.555007e-01 +1.728076e-01 -3.555007e-01 +1.728076e-01 -3.555007e-01 +8.271924e-01 +3.555007e-01
3.683701e+06 +8.397634e-01 +3.433535e-01 +1.602366e-01 -3.433535e-01 +1.602366e-01 -3.433535e-01 +8.397634e-01 +3.433535e-01
3.859147e+06 +8.515768e-01 +3.311405e-01 +1.484232e-01 -3.311405e-01 +1.484232e-01 -3.311405e-01 +8.515768e-01 +3.311405e-01
4.042949e+06 +8.627033e-01 +3.188900e-01 +1.372967e-01 -3.188900e-01 +1.372967e-01 -3.188900e-01 +8.627033e-01 +3.188900e-01
4.235505e+06 +8.731377e-01 +3.066483e-01 +1.268623e-01 -3.066483e-01 +1.268623e-01 -3.066483e-01 +8.731377e-01 +3.066483e-01
4.437233e+06 +8.827957e-01 +2.943968e-01 +1.172043e-01 -2.943968e-01 +1.172043e-01 -2.943968e-01 +8.827957e-01 +2.943968e-01
4.648568e+06 +8.918851e-01 +2.822860e-01 +1.081149e-01 -2.822860e-01 +1.081149e-01 -2.822860e-01 +8.918851e-01 +2.822860e-01
4.869968e+06 +9.002414e-01 +2.702492e-01 +9.975860e-02 -2.702492e-01 +9.975860e-02 -2.702492e-01 +9.002414e-01 +2.702492e-01
5.101914e+06 +9.079790e-01 +2.583489e-01 +9.202100e-02 -2.583489e-01 +9.202100e-02 -2.583489e-01 +9.079790e-01 +2.583489e-01
5.344906e+06 +9.153475e-01 +2.465996e-01 +8.465250e-02 -2.465996e-01 +8.465250e-02 -2.465996e-01 +9.153475e-01 +2.465996e-01
5.599471e+06 +9.219549e-01 +2.350012e-01 +7.804510e-02 -2.350012e-01 +7.804510e-02 -2.350012e-01 +9.219549e-01 +2.350012e-01
5.866161e+06 +9.282448e-01 +2.235979e-01 +7.175520e-02 -2.235979e-01 +7.175520e-02 -2.235979e-01 +9.282448e-01 +2.235979e-01
6.145553e+06 +9.339751e-01 +2.123279e-01 +6.602490e-02 -2.123279e-01 +6.602490e-02 -2.123279e-01 +9.339751e-01 +2.123279e-01
6.438251e+06 +9.393272e-01 +2.013573e-01 +6.067280e-02 -2.013573e-01 +6.067280e-02 -2.013573e-01 +9.393272e-01 +2.013573e-01
6.744890e+06 +9.441489e-01 +1.905639e-01 +5.585110e-02 -1.905639e-01 +5.585110e-02 -1.905639e-01 +9.441489e-01 +1.905639e-01
7.066134e+06 +9.486792e-01 +1.799013e-01 +5.132080e-02 -1.799013e-01 +5.132080e-02 -1.799013e-01 +9.486792e-01 +1.799013e-01
7.402677e+06 +9.527906e-01 +1.694974e-01 +4.720940e-02 -1.694974e-01 +4.720940e-02 -1.694974e-01 +9.527906e-01 +1.694974e-01
7.755249e+06 +9.566147e-01 +1.592322e-01 +4.338530e-02 -1.592322e-01 +4.338530e-02 -1.592322e-01 +9.566147e-01 +1.592322e-01
8.124614e+06 +9.601031e-01 +1.492146e-01 +3.989690e-02 -1.492146e-01 +3.989690e-02 -1.492146e-01 +9.601031e-01 +1.492146e-01
8.511570e+06 +9.632738e-01 +1.393788e-01 +3.672620e-02 -1.393788e-01 +3.672620e-02 -1.393788e-01 +9.632738e-01 +1.393788e-01
8.916957e+06 +9.661897e-01 +1.297250e-01 +3.381030e-02 -1.297250e-01 +3.381030e-02 -1.297250e-01 +9.661897e-01 +1.297250e-01
9.341651e+06 +9.688332e-01 +1.202359e-01 +3.116680e-02 -1.202359e-01 +3.116680e-02 -1.202359e-01 +9.688332e-01 +1.202359e-01
9.786572e+06 +9.712385e-01 +1.109122e-01 +2.876150e-02 -1.109122e-01 +2.876150e-02 -1.109122e-01 +9.712385e-01 +1.109122e-01
1.025268e+07 +9.734301e-01 +1.017581e-01 +2.656990e-02 -1.017581e-01 +2.656990e-02 -1.017581e-01 +9.734301e-01 +1.017581e-01
1.074100e+07 +9.753947e-01 +9.275420e-02 +2.460530e-02 -9.275420e-02 +2.460530e-02 -9.275420e-02 +9.753947e-01 +9.275420e-02
1.125256e+07 +9.771647e-01 +8.386600e-02 +2.283530e-02 -8.386600e-02 +2.283530e-02 -8.386600e-02 +9.771647e-01 +8.386600e-02
1.178850e+07 +9.787658e-01 +7.511110e-02 +2.123420e-02 -7.511110e-02 +2.123420e-02 -7.511110e-02 +9.787658e-01 +7.511110e-02
1.234996e+07 +9.801487e-01 +6.644940e-02 +1.985130e-02 -6.644940e-02 +1.985130e-02 -6.644940e-02 +9.801487e-01 +6.644940e-02
1.293816e+07 +9.813917e-01 +5.789170e-02 +1.860830e-02 -5.789170e-02 +1.860830e-02 -5.789170e-02 +9.813917e-01 +5.789170e-02
1.355437e+07 +9.824630e-01 +4.941700e-02 +1.753700e-02 -4.941700e-02 +1.753700e-02 -4.941700e-02 +9.824630e-01 +4.941700e-02
1.419993e+07 +9.833734e-01 +4.099740e-02 +1.662660e-02 -4.099740e-02 +1.662660e-02 -4.099740e-02 +9.833734e-01 +4.099740e-02
1.487624e+07 +9.841053e-01 +3.262530e-02 +1.589470e-02 -3.262530e-02 +1.589470e-02 -3.262530e-02 +9.841053e-01 +3.262530e-02
1.558476e+07 +9.847304e-01 +2.430340e-02 +1.526960e-02 -2.430340e-02 +1.526960e-02 -2.430340e-02 +9.847304e-01 +2.430340e-02
1.632703e+07 +9.851960e-01 +1.600350e-02 +1.480400e-02 -1.600350e-02 +1.480400e-02 -1.600350e-02 +9.851960e-01 +1.600350e-02
1.710465e+07 +9.855066e-01 +7.715600e-03 +1.449340e-02 -7.715600e-03 +1.449340e-02 -7.715600e-03 +9.855066e-01 +7.715600e-03
