! Touchstone 2-port S-parameters  (series-through model)
! Part: GJM1555C1H100_10pF_C0G
! Generated: 2026-06-14 12:05 UTC  by s2p tool
! Reference impedance: 50.0 Ohm
! ESL estimated from SRF: 0.440 nH (SRF=2400.0 MHz) [PHYSICS ESTIMATE]
! ESTIMATED / behavioral model - NOT manufacturer-measured data.
# Hz S RI R 50
! freq        ReS11      ImS11      ReS21      ImS21      ReS12      ImS12      ReS22      ImS22
1.000000e+04 +1.000000e+00 -6.283185e-05 +3.950605e-09 +6.283185e-05 +3.950605e-09 +6.283185e-05 +1.000000e+00 -6.283185e-05
1.035142e+04 +1.000000e+00 -6.503990e-05 +4.233150e-09 +6.503990e-05 +4.233150e-09 +6.503990e-05 +1.000000e+00 -6.503990e-05
1.071519e+04 +1.000000e+00 -6.732554e-05 +4.535902e-09 +6.732554e-05 +4.535902e-09 +6.732554e-05 +1.000000e+00 -6.732554e-05
1.109175e+04 +1.000000e+00 -6.969151e-05 +4.860306e-09 +6.969151e-05 +4.860306e-09 +6.969151e-05 +1.000000e+00 -6.969151e-05
1.148154e+04 +1.000000e+00 -7.214062e-05 +5.207912e-09 +7.214062e-05 +5.207912e-09 +7.214062e-05 +1.000000e+00 -7.214062e-05
1.188502e+04 +1.000000e+00 -7.467580e-05 +5.580378e-09 +7.467580e-05 +5.580378e-09 +7.467580e-05 +1.000000e+00 -7.467580e-05
1.230269e+04 +1.000000e+00 -7.730007e-05 +5.979483e-09 +7.730007e-05 +5.979483e-09 +7.730007e-05 +1.000000e+00 -7.730007e-05
1.273503e+04 +1.000000e+00 -8.001656e-05 +6.407131e-09 +8.001656e-05 +6.407131e-09 +8.001656e-05 +1.000000e+00 -8.001656e-05
1.318257e+04 +1.000000e+00 -8.282851e-05 +6.865365e-09 +8.282851e-05 +6.865365e-09 +8.282851e-05 +1.000000e+00 -8.282851e-05
1.364583e+04 +1.000000e+00 -8.573929e-05 +7.356371e-09 +8.573929e-05 +7.356371e-09 +8.573929e-05 +1.000000e+00 -8.573929e-05
1.412538e+04 +1.000000e+00 -8.875235e-05 +7.882494e-09 +8.875235e-05 +7.882494e-09 +8.875235e-05 +1.000000e+00 -8.875235e-05
1.462177e+04 +1.000000e+00 -9.187130e-05 +8.446244e-09 +9.187130e-05 +8.446244e-09 +9.187130e-05 +1.000000e+00 -9.187130e-05
1.513561e+04 +1.000000e+00 -9.509986e-05 +9.050314e-09 +9.509986e-05 +9.050314e-09 +9.509986e-05 +1.000000e+00 -9.509986e-05
1.566751e+04 +1.000000e+00 -9.844187e-05 +9.697586e-09 +9.844187e-05 +9.697586e-09 +9.844187e-05 +1.000000e+00 -9.844187e-05
1.621810e+04 +1.000000e+00 -1.019013e-04 +1.039115e-08 +1.019013e-04 +1.039115e-08 +1.019013e-04 +1.000000e+00 -1.019013e-04
1.678804e+04 +1.000000e+00 -1.054824e-04 +1.113432e-08 +1.054824e-04 +1.113432e-08 +1.054824e-04 +1.000000e+00 -1.054824e-04
1.737801e+04 +1.000000e+00 -1.091892e-04 +1.193064e-08 +1.091892e-04 +1.193064e-08 +1.091892e-04 +1.000000e+00 -1.091892e-04
1.798871e+04 +1.000000e+00 -1.130264e-04 +1.278391e-08 +1.130264e-04 +1.278391e-08 +1.130264e-04 +1.000000e+00 -1.130264e-04
1.862087e+04 +1.000000e+00 -1.169984e-04 +1.369820e-08 +1.169984e-04 +1.369820e-08 +1.169984e-04 +1.000000e+00 -1.169984e-04
1.927525e+04 +1.000000e+00 -1.211100e-04 +1.467789e-08 +1.211100e-04 +1.467789e-08 +1.211100e-04 +1.000000e+00 -1.211100e-04
1.995262e+04 +1.000000e+00 -1.253660e-04 +1.572764e-08 +1.253660e-04 +1.572764e-08 +1.253660e-04 +1.000000e+00 -1.253660e-04
2.065380e+04 +1.000000e+00 -1.297717e-04 +1.685247e-08 +1.297717e-04 +1.685247e-08 +1.297717e-04 +1.000000e+00 -1.297717e-04
2.137962e+04 +1.000000e+00 -1.343321e-04 +1.805775e-08 +1.343321e-04 +1.805775e-08 +1.343321e-04 +1.000000e+00 -1.343321e-04
2.213095e+04 +1.000000e+00 -1.390528e-04 +1.934923e-08 +1.390528e-04 +1.934923e-08 +1.390528e-04 +1.000000e+00 -1.390528e-04
2.290868e+04 +1.000000e+00 -1.439395e-04 +2.073307e-08 +1.439395e-04 +2.073307e-08 +1.439395e-04 +1.000000e+00 -1.439395e-04
2.371374e+04 +1.000000e+00 -1.489978e-04 +2.221589e-08 +1.489978e-04 +2.221589e-08 +1.489978e-04 +1.000000e+00 -1.489978e-04
2.454709e+04 +1.000000e+00 -1.542339e-04 +2.380475e-08 +1.542339e-04 +2.380475e-08 +1.542339e-04 +1.000000e+00 -1.542339e-04
2.540973e+04 +1.000000e+00 -1.596540e-04 +2.550725e-08 +1.596540e-04 +2.550725e-08 +1.596540e-04 +1.000000e+00 -1.596540e-04
2.630268e+04 +1.000000e+00 -1.652646e-04 +2.733151e-08 +1.652646e-04 +2.733151e-08 +1.652646e-04 +1.000000e+00 -1.652646e-04
2.722701e+04 +1.000000e+00 -1.710724e-04 +2.928624e-08 +1.710724e-04 +2.928624e-08 +1.710724e-04 +1.000000e+00 -1.710724e-04
2.818383e+04 +1.000000e+00 -1.770842e-04 +3.138077e-08 +1.770842e-04 +3.138077e-08 +1.770842e-04 +1.000000e+00 -1.770842e-04
2.917427e+04 +1.000000e+00 -1.833073e-04 +3.362510e-08 +1.833073e-04 +3.362510e-08 +1.833073e-04 +1.000000e+00 -1.833073e-04
3.019952e+04 +1.000000e+00 -1.897492e-04 +3.602995e-08 +1.897492e-04 +3.602995e-08 +1.897492e-04 +1.000000e+00 -1.897492e-04
3.126079e+04 +1.000000e+00 -1.964174e-04 +3.860678e-08 +1.964174e-04 +3.860678e-08 +1.964174e-04 +1.000000e+00 -1.964174e-04
3.235937e+04 +1.000000e+00 -2.033199e-04 +4.136791e-08 +2.033199e-04 +4.136791e-08 +2.033199e-04 +1.000000e+00 -2.033199e-04
3.349654e+04 +1.000000e+00 -2.104650e-04 +4.432652e-08 +2.104650e-04 +4.432652e-08 +2.104650e-04 +1.000000e+00 -2.104650e-04
3.467369e+04 +1.000000e+00 -2.178612e-04 +4.749672e-08 +2.178612e-04 +4.749672e-08 +2.178612e-04 +1.000000e+00 -2.178612e-04
3.589219e+04 +9.999999e-01 -2.255173e-04 +5.089365e-08 +2.255173e-04 +5.089365e-08 +2.255173e-04 +9.999999e-01 -2.255173e-04
3.715352e+04 +9.999999e-01 -2.334425e-04 +5.453353e-08 +2.334425e-04 +5.453353e-08 +2.334425e-04 +9.999999e-01 -2.334425e-04
3.845918e+04 +9.999999e-01 -2.416461e-04 +5.843373e-08 +2.416461e-04 +5.843373e-08 +2.416461e-04 +9.999999e-01 -2.416461e-04
3.981072e+04 +9.999999e-01 -2.501381e-04 +6.261287e-08 +2.501381e-04 +6.261287e-08 +2.501381e-04 +9.999999e-01 -2.501381e-04
4.120975e+04 +9.999999e-01 -2.589285e-04 +6.709090e-08 +2.589285e-04 +6.709090e-08 +2.589285e-04 +9.999999e-01 -2.589285e-04
4.265795e+04 +9.999999e-01 -2.680278e-04 +7.188919e-08 +2.680278e-04 +7.188919e-08 +2.680278e-04 +9.999999e-01 -2.680278e-04
4.415704e+04 +9.999999e-01 -2.774469e-04 +7.703066e-08 +2.774469e-04 +7.703066e-08 +2.774469e-04 +9.999999e-01 -2.774469e-04
4.570882e+04 +9.999999e-01 -2.871970e-04 +8.253984e-08 +2.871970e-04 +8.253984e-08 +2.871970e-04 +9.999999e-01 -2.871970e-04
4.731513e+04 +9.999999e-01 -2.972897e-04 +8.844303e-08 +2.972897e-04 +8.844303e-08 +2.972897e-04 +9.999999e-01 -2.972897e-04
4.897788e+04 +9.999999e-01 -3.077371e-04 +9.476841e-08 +3.077371e-04 +9.476841e-08 +3.077371e-04 +9.999999e-01 -3.077371e-04
5.069907e+04 +9.999999e-01 -3.185516e-04 +1.015462e-07 +3.185516e-04 +1.015462e-07 +3.185516e-04 +9.999999e-01 -3.185516e-04
5.248075e+04 +9.999999e-01 -3.297462e-04 +1.088087e-07 +3.297462e-04 +1.088087e-07 +3.297462e-04 +9.999999e-01 -3.297462e-04
5.432503e+04 +9.999999e-01 -3.413342e-04 +1.165906e-07 +3.413342e-04 +1.165906e-07 +3.413342e-04 +9.999999e-01 -3.413342e-04
5.623413e+04 +9.999999e-01 -3.533294e-04 +1.249291e-07 +3.533294e-04 +1.249291e-07 +3.533294e-04 +9.999999e-01 -3.533294e-04
5.821032e+04 +9.999999e-01 -3.657462e-04 +1.338639e-07 +3.657462e-04 +1.338639e-07 +3.657462e-04 +9.999999e-01 -3.657462e-04
6.025596e+04 +9.999999e-01 -3.785993e-04 +1.434378e-07 +3.785993e-04 +1.434378e-07 +3.785993e-04 +9.999999e-01 -3.785993e-04
6.237348e+04 +9.999998e-01 -3.919041e-04 +1.536964e-07 +3.919041e-04 +1.536964e-07 +3.919041e-04 +9.999998e-01 -3.919041e-04
6.456542e+04 +9.999998e-01 -4.056764e-04 +1.646886e-07 +4.056764e-04 +1.646886e-07 +4.056764e-04 +9.999998e-01 -4.056764e-04
6.683439e+04 +9.999998e-01 -4.199328e-04 +1.764670e-07 +4.199328e-04 +1.764670e-07 +4.199328e-04 +9.999998e-01 -4.199328e-04
6.918310e+04 +9.999998e-01 -4.346901e-04 +1.890878e-07 +4.346901e-04 +1.890878e-07 +4.346901e-04 +9.999998e-01 -4.346901e-04
7.161434e+04 +9.999998e-01 -4.499661e-04 +2.026112e-07 +4.499661e-04 +2.026112e-07 +4.499661e-04 +9.999998e-01 -4.499661e-04
7.413102e+04 +9.999998e-01 -4.657789e-04 +2.171019e-07 +4.657789e-04 +2.171019e-07 +4.657789e-04 +9.999998e-01 -4.657789e-04
7.673615e+04 +9.999998e-01 -4.821473e-04 +2.326288e-07 +4.821473e-04 +2.326288e-07 +4.821473e-04 +9.999998e-01 -4.821473e-04
7.943282e+04 +9.999998e-01 -4.990910e-04 +2.492663e-07 +4.990910e-04 +2.492663e-07 +4.990910e-04 +9.999998e-01 -4.990910e-04
8.222426e+04 +9.999997e-01 -5.166302e-04 +2.670936e-07 +5.166302e-04 +2.670936e-07 +5.166302e-04 +9.999997e-01 -5.166302e-04
8.511380e+04 +9.999997e-01 -5.347856e-04 +2.861960e-07 +5.347856e-04 +2.861960e-07 +5.347856e-04 +9.999997e-01 -5.347856e-04
8.810489e+04 +9.999997e-01 -5.535792e-04 +3.066645e-07 +5.535792e-04 +3.066645e-07 +5.535792e-04 +9.999997e-01 -5.535792e-04
9.120108e+04 +9.999997e-01 -5.730331e-04 +3.285969e-07 +5.730331e-04 +3.285969e-07 +5.730331e-04 +9.999997e-01 -5.730331e-04
9.440609e+04 +9.999996e-01 -5.931707e-04 +3.520979e-07 +5.931707e-04 +3.520979e-07 +5.931707e-04 +9.999996e-01 -5.931707e-04
9.772372e+04 +9.999996e-01 -6.140160e-04 +3.772797e-07 +6.140160e-04 +3.772797e-07 +6.140160e-04 +9.999996e-01 -6.140160e-04
1.011579e+05 +9.999996e-01 -6.355939e-04 +4.042625e-07 +6.355939e-04 +4.042625e-07 +6.355939e-04 +9.999996e-01 -6.355939e-04
1.047129e+05 +9.999996e-01 -6.579300e-04 +4.331751e-07 +6.579300e-04 +4.331751e-07 +6.579300e-04 +9.999996e-01 -6.579300e-04
1.083927e+05 +9.999995e-01 -6.810511e-04 +4.641554e-07 +6.810511e-04 +4.641554e-07 +6.810511e-04 +9.999995e-01 -6.810511e-04
1.122018e+05 +9.999995e-01 -7.049846e-04 +4.973515e-07 +7.049846e-04 +4.973515e-07 +7.049846e-04 +9.999995e-01 -7.049846e-04
1.161449e+05 +9.999995e-01 -7.297593e-04 +5.329217e-07 +7.297593e-04 +5.329217e-07 +7.297593e-04 +9.999995e-01 -7.297593e-04
1.202264e+05 +9.999994e-01 -7.554046e-04 +5.710359e-07 +7.554046e-04 +5.710359e-07 +7.554046e-04 +9.999994e-01 -7.554046e-04
1.244515e+05 +9.999994e-01 -7.819511e-04 +6.118759e-07 +7.819511e-04 +6.118759e-07 +7.819511e-04 +9.999994e-01 -7.819511e-04
1.288250e+05 +9.999993e-01 -8.094305e-04 +6.556368e-07 +8.094305e-04 +6.556368e-07 +8.094305e-04 +9.999993e-01 -8.094305e-04
1.333521e+05 +9.999993e-01 -8.378756e-04 +7.025275e-07 +8.378756e-04 +7.025275e-07 +8.378756e-04 +9.999993e-01 -8.378756e-04
1.380384e+05 +9.999992e-01 -8.673204e-04 +7.527717e-07 +8.673204e-04 +7.527717e-07 +8.673204e-04 +9.999992e-01 -8.673204e-04
1.428894e+05 +9.999992e-01 -8.977998e-04 +8.066094e-07 +8.977998e-04 +8.066094e-07 +8.977998e-04 +9.999992e-01 -8.977998e-04
1.479108e+05 +9.999991e-01 -9.293504e-04 +8.642975e-07 +9.293504e-04 +8.642975e-07 +9.293504e-04 +9.999991e-01 -9.293504e-04
1.531087e+05 +9.999991e-01 -9.620097e-04 +9.261114e-07 +9.620097e-04 +9.261114e-07 +9.620097e-04 +9.999991e-01 -9.620097e-04
1.584893e+05 +9.999990e-01 -9.958168e-04 +9.923462e-07 +9.958168e-04 +9.923462e-07 +9.958168e-04 +9.999990e-01 -9.958168e-04
1.640590e+05 +9.999989e-01 -1.030812e-03 +1.063318e-06 +1.030812e-03 +1.063318e-06 +1.030812e-03 +9.999989e-01 -1.030812e-03
1.698244e+05 +9.999989e-01 -1.067037e-03 +1.139366e-06 +1.067037e-03 +1.139366e-06 +1.067037e-03 +9.999989e-01 -1.067037e-03
1.757924e+05 +9.999988e-01 -1.104535e-03 +1.220852e-06 +1.104535e-03 +1.220852e-06 +1.104535e-03 +9.999988e-01 -1.104535e-03
1.819701e+05 +9.999987e-01 -1.143350e-03 +1.308167e-06 +1.143350e-03 +1.308167e-06 +1.143350e-03 +9.999987e-01 -1.143350e-03
1.883649e+05 +9.999986e-01 -1.183530e-03 +1.401726e-06 +1.183530e-03 +1.401726e-06 +1.183530e-03 +9.999986e-01 -1.183530e-03
1.949845e+05 +9.999985e-01 -1.225122e-03 +1.501976e-06 +1.225122e-03 +1.501976e-06 +1.225122e-03 +9.999985e-01 -1.225122e-03
2.018366e+05 +9.999984e-01 -1.268175e-03 +1.609396e-06 +1.268175e-03 +1.609396e-06 +1.268175e-03 +9.999984e-01 -1.268175e-03
2.089296e+05 +9.999983e-01 -1.312741e-03 +1.724499e-06 +1.312741e-03 +1.724499e-06 +1.312741e-03 +9.999983e-01 -1.312741e-03
2.162719e+05 +9.999982e-01 -1.358874e-03 +1.847834e-06 +1.358874e-03 +1.847834e-06 +1.358874e-03 +9.999982e-01 -1.358874e-03
2.238721e+05 +9.999980e-01 -1.406627e-03 +1.979989e-06 +1.406627e-03 +1.979989e-06 +1.406627e-03 +9.999980e-01 -1.406627e-03
2.317395e+05 +9.999979e-01 -1.456059e-03 +2.121596e-06 +1.456059e-03 +2.121596e-06 +1.456059e-03 +9.999979e-01 -1.456059e-03
2.398833e+05 +9.999977e-01 -1.507228e-03 +2.273331e-06 +1.507228e-03 +2.273331e-06 +1.507228e-03 +9.999977e-01 -1.507228e-03
2.483133e+05 +9.999976e-01 -1.560195e-03 +2.435918e-06 +1.560195e-03 +2.435918e-06 +1.560195e-03 +9.999976e-01 -1.560195e-03
2.570396e+05 +9.999974e-01 -1.615023e-03 +2.610132e-06 +1.615023e-03 +2.610132e-06 +1.615023e-03 +9.999974e-01 -1.615023e-03
2.660725e+05 +9.999972e-01 -1.671778e-03 +2.796807e-06 +1.671778e-03 +2.796807e-06 +1.671778e-03 +9.999972e-01 -1.671778e-03
2.754229e+05 +9.999970e-01 -1.730528e-03 +2.996832e-06 +1.730528e-03 +2.996832e-06 +1.730528e-03 +9.999970e-01 -1.730528e-03
2.851018e+05 +9.999968e-01 -1.791342e-03 +3.211162e-06 +1.791342e-03 +3.211162e-06 +1.791342e-03 +9.999968e-01 -1.791342e-03
2.951209e+05 +9.999966e-01 -1.854293e-03 +3.440822e-06 +1.854293e-03 +3.440822e-06 +1.854293e-03 +9.999966e-01 -1.854293e-03
3.054921e+05 +9.999963e-01 -1.919456e-03 +3.686906e-06 +1.919456e-03 +3.686906e-06 +1.919456e-03 +9.999963e-01 -1.919456e-03
3.162278e+05 +9.999960e-01 -1.986910e-03 +3.950590e-06 +1.986910e-03 +3.950590e-06 +1.986910e-03 +9.999960e-01 -1.986910e-03
3.273407e+05 +9.999958e-01 -2.056734e-03 +4.233132e-06 +2.056734e-03 +4.233132e-06 +2.056734e-03 +9.999958e-01 -2.056734e-03
3.388442e+05 +9.999955e-01 -2.129011e-03 +4.535881e-06 +2.129011e-03 +4.535881e-06 +2.129011e-03 +9.999955e-01 -2.129011e-03
3.507519e+05 +9.999951e-01 -2.203828e-03 +4.860283e-06 +2.203828e-03 +4.860283e-06 +2.203828e-03 +9.999951e-01 -2.203828e-03
3.630781e+05 +9.999948e-01 -2.281275e-03 +5.207885e-06 +2.281275e-03 +5.207885e-06 +2.281275e-03 +9.999948e-01 -2.281275e-03
3.758374e+05 +9.999944e-01 -2.361443e-03 +5.580347e-06 +2.361443e-03 +5.580347e-06 +2.361443e-03 +9.999944e-01 -2.361443e-03
3.890451e+05 +9.999940e-01 -2.444428e-03 +5.979448e-06 +2.444428e-03 +5.979448e-06 +2.444428e-03 +9.999940e-01 -2.444428e-03
4.027170e+05 +9.999936e-01 -2.530330e-03 +6.407091e-06 +2.530330e-03 +6.407091e-06 +2.530330e-03 +9.999936e-01 -2.530330e-03
4.168694e+05 +9.999931e-01 -2.619250e-03 +6.865318e-06 +2.619250e-03 +6.865318e-06 +2.619250e-03 +9.999931e-01 -2.619250e-03
4.315191e+05 +9.999926e-01 -2.711294e-03 +7.356318e-06 +2.711294e-03 +7.356318e-06 +2.711294e-03 +9.999926e-01 -2.711294e-03
4.466836e+05 +9.999921e-01 -2.806574e-03 +7.882432e-06 +2.806574e-03 +7.882432e-06 +2.806574e-03 +9.999921e-01 -2.806574e-03
4.623810e+05 +9.999916e-01 -2.905201e-03 +8.446173e-06 +2.905201e-03 +8.446173e-06 +2.905201e-03 +9.999916e-01 -2.905201e-03
4.786301e+05 +9.999909e-01 -3.007294e-03 +9.050233e-06 +3.007294e-03 +9.050233e-06 +3.007294e-03 +9.999909e-01 -3.007294e-03
4.954502e+05 +9.999903e-01 -3.112975e-03 +9.697493e-06 +3.112975e-03 +9.697493e-06 +3.112975e-03 +9.999903e-01 -3.112975e-03
5.128614e+05 +9.999896e-01 -3.222370e-03 +1.039104e-05 +3.222370e-03 +1.039104e-05 +3.222370e-03 +9.999896e-01 -3.222370e-03
5.308844e+05 +9.999889e-01 -3.335608e-03 +1.113420e-05 +3.335608e-03 +1.113420e-05 +3.335608e-03 +9.999889e-01 -3.335608e-03
5.495409e+05 +9.999881e-01 -3.452826e-03 +1.193050e-05 +3.452826e-03 +1.193050e-05 +3.452826e-03 +9.999881e-01 -3.452826e-03
5.688529e+05 +9.999872e-01 -3.574163e-03 +1.278375e-05 +3.574163e-03 +1.278375e-05 +3.574163e-03 +9.999872e-01 -3.574163e-03
5.888437e+05 +9.999863e-01 -3.699763e-03 +1.369802e-05 +3.699763e-03 +1.369802e-05 +3.699763e-03 +9.999863e-01 -3.699763e-03
6.095369e+05 +9.999853e-01 -3.829777e-03 +1.467768e-05 +3.829777e-03 +1.467768e-05 +3.829777e-03 +9.999853e-01 -3.829777e-03
6.309573e+05 +9.999843e-01 -3.964360e-03 +1.572740e-05 +3.964360e-03 +1.572740e-05 +3.964360e-03 +9.999843e-01 -3.964360e-03
6.531306e+05 +9.999831e-01 -4.103671e-03 +1.685219e-05 +4.103671e-03 +1.685219e-05 +4.103671e-03 +9.999831e-01 -4.103671e-03
6.760830e+05 +9.999819e-01 -4.247878e-03 +1.805743e-05 +4.247878e-03 +1.805743e-05 +4.247878e-03 +9.999819e-01 -4.247878e-03
6.998420e+05 +9.999807e-01 -4.397152e-03 +1.934886e-05 +4.397152e-03 +1.934886e-05 +4.397152e-03 +9.999807e-01 -4.397152e-03
7.244360e+05 +9.999793e-01 -4.551671e-03 +2.073264e-05 +4.551671e-03 +2.073264e-05 +4.551671e-03 +9.999793e-01 -4.551671e-03
7.498942e+05 +9.999778e-01 -4.711620e-03 +2.221540e-05 +4.711620e-03 +2.221540e-05 +4.711620e-03 +9.999778e-01 -4.711620e-03
7.762471e+05 +9.999762e-01 -4.877189e-03 +2.380419e-05 +4.877189e-03 +2.380419e-05 +4.877189e-03 +9.999762e-01 -4.877189e-03
8.035261e+05 +9.999745e-01 -5.048575e-03 +2.550660e-05 +5.048575e-03 +2.550660e-05 +5.048575e-03 +9.999745e-01 -5.048575e-03
8.317638e+05 +9.999727e-01 -5.225984e-03 +2.733077e-05 +5.225984e-03 +2.733077e-05 +5.225984e-03 +9.999727e-01 -5.225984e-03
8.609938e+05 +9.999707e-01 -5.409625e-03 +2.928539e-05 +5.409625e-03 +2.928539e-05 +5.409625e-03 +9.999707e-01 -5.409625e-03
8.912509e+05 +9.999686e-01 -5.599720e-03 +3.137980e-05 +5.599720e-03 +3.137980e-05 +5.599720e-03 +9.999686e-01 -5.599720e-03
9.225714e+05 +9.999664e-01 -5.796493e-03 +3.362398e-05 +5.796493e-03 +3.362398e-05 +5.796493e-03 +9.999664e-01 -5.796493e-03
9.549926e+05 +9.999640e-01 -6.000180e-03 +3.602866e-05 +6.000180e-03 +3.602866e-05 +6.000180e-03 +9.999640e-01 -6.000180e-03
9.885531e+05 +9.999614e-01 -6.211023e-03 +3.860531e-05 +6.211023e-03 +3.860531e-05 +6.211023e-03 +9.999614e-01 -6.211023e-03
1.023293e+06 +9.999586e-01 -6.429275e-03 +4.136622e-05 +6.429275e-03 +4.136622e-05 +6.429275e-03 +9.999586e-01 -6.429275e-03
1.059254e+06 +9.999557e-01 -6.655194e-03 +4.432457e-05 +6.655194e-03 +4.432457e-05 +6.655194e-03 +9.999557e-01 -6.655194e-03
1.096478e+06 +9.999525e-01 -6.889050e-03 +4.749448e-05 +6.889050e-03 +4.749448e-05 +6.889050e-03 +9.999525e-01 -6.889050e-03
1.135011e+06 +9.999491e-01 -7.131122e-03 +5.089109e-05 +7.131122e-03 +5.089109e-05 +7.131122e-03 +9.999491e-01 -7.131122e-03
1.174898e+06 +9.999455e-01 -7.381698e-03 +5.453058e-05 +7.381698e-03 +5.453058e-05 +7.381698e-03 +9.999455e-01 -7.381698e-03
1.216186e+06 +9.999416e-01 -7.641077e-03 +5.843035e-05 +7.641077e-03 +5.843035e-05 +7.641077e-03 +9.999416e-01 -7.641077e-03
1.258925e+06 +9.999374e-01 -7.909568e-03 +6.260899e-05 +7.909568e-03 +6.260899e-05 +7.909568e-03 +9.999374e-01 -7.909568e-03
1.303167e+06 +9.999329e-01 -8.187491e-03 +6.708644e-05 +8.187491e-03 +6.708644e-05 +8.187491e-03 +9.999329e-01 -8.187491e-03
1.348963e+06 +9.999281e-01 -8.475177e-03 +7.188407e-05 +8.475177e-03 +7.188407e-05 +8.475177e-03 +9.999281e-01 -8.475177e-03
1.396368e+06 +9.999230e-01 -8.772968e-03 +7.702478e-05 +8.772968e-03 +7.702478e-05 +8.772968e-03 +9.999230e-01 -8.772968e-03
1.445440e+06 +9.999175e-01 -9.081219e-03 +8.253309e-05 +9.081219e-03 +8.253309e-05 +9.081219e-03 +9.999175e-01 -9.081219e-03
1.496236e+06 +9.999116e-01 -9.400298e-03 +8.843528e-05 +9.400298e-03 +8.843528e-05 +9.400298e-03 +9.999116e-01 -9.400298e-03
1.548817e+06 +9.999052e-01 -9.730583e-03 +9.475951e-05 +9.730583e-03 +9.475951e-05 +9.730583e-03 +9.999052e-01 -9.730583e-03
1.603245e+06 +9.998985e-01 -1.007247e-02 +1.015360e-04 +1.007247e-02 +1.015360e-04 +1.007247e-02 +9.998985e-01 -1.007247e-02
1.659587e+06 +9.998912e-01 -1.042636e-02 +1.087970e-04 +1.042636e-02 +1.087970e-04 +1.042636e-02 +9.998912e-01 -1.042636e-02
1.717908e+06 +9.998834e-01 -1.079268e-02 +1.165771e-04 +1.079268e-02 +1.165771e-04 +1.079268e-02 +9.998834e-01 -1.079268e-02
1.778279e+06 +9.998751e-01 -1.117187e-02 +1.249136e-04 +1.117187e-02 +1.249136e-04 +1.117187e-02 +9.998751e-01 -1.117187e-02
1.840772e+06 +9.998662e-01 -1.156437e-02 +1.338462e-04 +1.156437e-02 +1.338462e-04 +1.156437e-02 +9.998662e-01 -1.156437e-02
1.905461e+06 +9.998566e-01 -1.197065e-02 +1.434174e-04 +1.197065e-02 +1.434174e-04 +1.197065e-02 +9.998566e-01 -1.197065e-02
1.972423e+06 +9.998463e-01 -1.239120e-02 +1.536730e-04 +1.239120e-02 +1.536730e-04 +1.239120e-02 +9.998463e-01 -1.239120e-02
2.041738e+06 +9.998353e-01 -1.282651e-02 +1.646617e-04 +1.282651e-02 +1.646617e-04 +1.282651e-02 +9.998353e-01 -1.282651e-02
2.113489e+06 +9.998236e-01 -1.327711e-02 +1.764362e-04 +1.327711e-02 +1.764362e-04 +1.327711e-02 +9.998236e-01 -1.327711e-02
2.187762e+06 +9.998109e-01 -1.374352e-02 +1.890524e-04 +1.374352e-02 +1.890524e-04 +1.374352e-02 +9.998109e-01 -1.374352e-02
2.264644e+06 +9.997974e-01 -1.422631e-02 +2.025706e-04 +1.422631e-02 +2.025706e-04 +1.422631e-02 +9.997974e-01 -1.422631e-02
2.344229e+06 +9.997829e-01 -1.472604e-02 +2.170552e-04 +1.472604e-02 +2.170552e-04 +1.472604e-02 +9.997829e-01 -1.472604e-02
2.426610e+06 +9.997674e-01 -1.524331e-02 +2.325752e-04 +1.524331e-02 +2.325752e-04 +1.524331e-02 +9.997674e-01 -1.524331e-02
2.511886e+06 +9.997508e-01 -1.577873e-02 +2.492047e-04 +1.577873e-02 +2.492047e-04 +1.577873e-02 +9.997508e-01 -1.577873e-02
2.600160e+06 +9.997330e-01 -1.633294e-02 +2.670230e-04 +1.633294e-02 +2.670230e-04 +1.633294e-02 +9.997330e-01 -1.633294e-02
2.691535e+06 +9.997139e-01 -1.690659e-02 +2.861148e-04 +1.690659e-02 +2.861148e-04 +1.690659e-02 +9.997139e-01 -1.690659e-02
2.786121e+06 +9.996934e-01 -1.750037e-02 +3.065713e-04 +1.750037e-02 +3.065713e-04 +1.750037e-02 +9.996934e-01 -1.750037e-02
2.884032e+06 +9.996715e-01 -1.811497e-02 +3.284900e-04 +1.811497e-02 +3.284900e-04 +1.811497e-02 +9.996715e-01 -1.811497e-02
2.985383e+06 +9.996480e-01 -1.875113e-02 +3.519751e-04 +1.875113e-02 +3.519751e-04 +1.875113e-02 +9.996480e-01 -1.875113e-02
3.090295e+06 +9.996229e-01 -1.940960e-02 +3.771387e-04 +1.940960e-02 +3.771387e-04 +1.940960e-02 +9.996229e-01 -1.940960e-02
3.198895e+06 +9.995959e-01 -2.009116e-02 +4.041006e-04 +2.009116e-02 +4.041006e-04 +2.009116e-02 +9.995959e-01 -2.009116e-02
3.311311e+06 +9.995670e-01 -2.079661e-02 +4.329892e-04 +2.079661e-02 +4.329892e-04 +2.079661e-02 +9.995670e-01 -2.079661e-02
3.427678e+06 +9.995361e-01 -2.152678e-02 +4.639420e-04 +2.152678e-02 +4.639420e-04 +2.152678e-02 +9.995361e-01 -2.152678e-02
3.548134e+06 +9.995029e-01 -2.228254e-02 +4.971065e-04 +2.228254e-02 +4.971065e-04 +2.228254e-02 +9.995029e-01 -2.228254e-02
3.672823e+06 +9.994674e-01 -2.306478e-02 +5.326404e-04 +2.306478e-02 +5.326404e-04 +2.306478e-02 +9.994674e-01 -2.306478e-02
3.801894e+06 +9.994293e-01 -2.387442e-02 +5.707129e-04 +2.387442e-02 +5.707129e-04 +2.387442e-02 +9.994293e-01 -2.387442e-02
3.935501e+06 +9.993885e-01 -2.471242e-02 +6.115052e-04 +2.471242e-02 +6.115052e-04 +2.471242e-02 +9.993885e-01 -2.471242e-02
4.073803e+06 +9.993448e-01 -2.557975e-02 +6.552112e-04 +2.557975e-02 +6.552112e-04 +2.557975e-02 +9.993448e-01 -2.557975e-02
4.216965e+06 +9.992980e-01 -2.647744e-02 +7.020388e-04 +2.647744e-02 +7.020388e-04 +2.647744e-02 +9.992980e-01 -2.647744e-02
4.365158e+06 +9.992478e-01 -2.740654e-02 +7.522106e-04 +2.740654e-02 +7.522106e-04 +2.740654e-02 +9.992478e-01 -2.740654e-02
4.518559e+06 +9.991940e-01 -2.836815e-02 +8.059652e-04 +2.836815e-02 +8.059652e-04 +2.836815e-02 +9.991940e-01 -2.836815e-02
4.677351e+06 +9.991364e-01 -2.936338e-02 +8.635579e-04 +2.936338e-02 +8.635579e-04 +2.936338e-02 +9.991364e-01 -2.936338e-02
4.841724e+06 +9.990747e-01 -3.039340e-02 +9.252623e-04 +3.039340e-02 +9.252623e-04 +3.039340e-02 +9.990747e-01 -3.039340e-02
5.011872e+06 +9.990086e-01 -3.145942e-02 +9.913713e-04 +3.145942e-02 +9.913713e-04 +3.145942e-02 +9.990086e-01 -3.145942e-02
5.188000e+06 +9.989378e-01 -3.256267e-02 +1.062199e-03 +3.256267e-02 +1.062199e-03 +3.256267e-02 +9.989378e-01 -3.256267e-02
5.370318e+06 +9.988619e-01 -3.370444e-02 +1.138081e-03 +3.370444e-02 +1.138081e-03 +3.370444e-02 +9.988619e-01 -3.370444e-02
5.559043e+06 +9.987806e-01 -3.488606e-02 +1.219377e-03 +3.488606e-02 +1.219377e-03 +3.488606e-02 +9.987806e-01 -3.488606e-02
5.754399e+06 +9.986935e-01 -3.610890e-02 +1.306473e-03 +3.610890e-02 +1.306473e-03 +3.610890e-02 +9.986935e-01 -3.610890e-02
5.956621e+06 +9.986002e-01 -3.737436e-02 +1.399781e-03 +3.737436e-02 +1.399781e-03 +3.737436e-02 +9.986002e-01 -3.737436e-02
6.165950e+06 +9.985003e-01 -3.868392e-02 +1.499744e-03 +3.868392e-02 +1.499744e-03 +3.868392e-02 +9.985003e-01 -3.868392e-02
6.382635e+06 +9.983932e-01 -4.003908e-02 +1.606834e-03 +4.003908e-02 +1.606834e-03 +4.003908e-02 +9.983932e-01 -4.003908e-02
6.606934e+06 +9.982784e-01 -4.144139e-02 +1.721557e-03 +4.144139e-02 +1.721557e-03 +4.144139e-02 +9.982784e-01 -4.144139e-02
6.839116e+06 +9.981555e-01 -4.289247e-02 +1.844456e-03 +4.289247e-02 +1.844456e-03 +4.289247e-02 +9.981555e-01 -4.289247e-02
7.079458e+06 +9.980239e-01 -4.439397e-02 +1.976112e-03 +4.439397e-02 +1.976112e-03 +4.439397e-02 +9.980239e-01 -4.439397e-02
7.328245e+06 +9.978829e-01 -4.594760e-02 +2.117145e-03 +4.594760e-02 +2.117145e-03 +4.594760e-02 +9.978829e-01 -4.594760e-02
7.585776e+06 +9.977318e-01 -4.755512e-02 +2.268221e-03 +4.755512e-02 +2.268221e-03 +4.755512e-02 +9.977318e-01 -4.755512e-02
7.852356e+06 +9.975699e-01 -4.921836e-02 +2.430052e-03 +4.921836e-02 +2.430052e-03 +4.921836e-02 +9.975699e-01 -4.921836e-02
8.128305e+06 +9.973966e-01 -5.093918e-02 +2.603399e-03 +5.093918e-02 +2.603399e-03 +5.093918e-02 +9.973966e-01 -5.093918e-02
8.413951e+06 +9.972109e-01 -5.271951e-02 +2.789077e-03 +5.271951e-02 +2.789077e-03 +5.271951e-02 +9.972109e-01 -5.271951e-02
8.709636e+06 +9.970120e-01 -5.456135e-02 +2.987959e-03 +5.456135e-02 +2.987959e-03 +5.456135e-02 +9.970120e-01 -5.456135e-02
9.015711e+06 +9.967990e-01 -5.646673e-02 +3.200977e-03 +5.646673e-02 +3.200977e-03 +5.646673e-02 +9.967990e-01 -5.646673e-02
9.332543e+06 +9.965709e-01 -5.843776e-02 +3.429130e-03 +5.843776e-02 +3.429130e-03 +5.843776e-02 +9.965709e-01 -5.843776e-02
9.660509e+06 +9.963265e-01 -6.047661e-02 +3.673485e-03 +6.047661e-02 +3.673485e-03 +6.047661e-02 +9.963265e-01 -6.047661e-02
1.000000e+07 +9.960648e-01 -6.258551e-02 +3.935185e-03 +6.258551e-02 +3.935185e-03 +6.258551e-02 +9.960648e-01 -6.258551e-02
1.035142e+07 +9.957846e-01 -6.476674e-02 +4.215450e-03 +6.476674e-02 +4.215450e-03 +6.476674e-02 +9.957846e-01 -6.476674e-02
1.071519e+07 +9.954844e-01 -6.702265e-02 +4.515585e-03 +6.702265e-02 +4.515585e-03 +6.702265e-02 +9.954844e-01 -6.702265e-02
1.109175e+07 +9.951630e-01 -6.935566e-02 +4.836987e-03 +6.935566e-02 +4.836987e-03 +6.935566e-02 +9.951630e-01 -6.935566e-02
1.148154e+07 +9.948189e-01 -7.176823e-02 +5.181147e-03 +7.176823e-02 +5.181147e-03 +7.176823e-02 +9.948189e-01 -7.176823e-02
1.188502e+07 +9.944503e-01 -7.426290e-02 +5.549660e-03 +7.426290e-02 +5.549660e-03 +7.426290e-02 +9.944503e-01 -7.426290e-02
1.230269e+07 +9.940558e-01 -7.684228e-02 +5.944227e-03 +7.684228e-02 +5.944227e-03 +7.684228e-02 +9.940558e-01 -7.684228e-02
1.273503e+07 +9.936333e-01 -7.950900e-02 +6.366669e-03 +7.950900e-02 +6.366669e-03 +7.950900e-02 +9.936333e-01 -7.950900e-02
1.318257e+07 +9.931811e-01 -8.226580e-02 +6.818929e-03 +8.226580e-02 +6.818929e-03 +8.226580e-02 +9.931811e-01 -8.226580e-02
1.364583e+07 +9.926969e-01 -8.511544e-02 +7.303082e-03 +8.511544e-02 +7.303082e-03 +8.511544e-02 +9.926969e-01 -8.511544e-02
1.412538e+07 +9.921787e-01 -8.806075e-02 +7.821341e-03 +8.806075e-02 +7.821341e-03 +8.806075e-02 +9.921787e-01 -8.806075e-02
1.462177e+07 +9.916239e-01 -9.110462e-02 +8.376070e-03 +9.110462e-02 +8.376070e-03 +9.110462e-02 +9.916239e-01 -9.110462e-02
1.513561e+07 +9.910302e-01 -9.424998e-02 +8.969791e-03 +9.424998e-02 +8.969791e-03 +9.424998e-02 +9.910302e-01 -9.424998e-02
1.566751e+07 +9.903948e-01 -9.749981e-02 +9.605192e-03 +9.749981e-02 +9.605192e-03 +9.749981e-02 +9.903948e-01 -9.749981e-02
1.621810e+07 +9.897149e-01 -1.008571e-01 +1.028514e-02 +1.008571e-01 +1.028514e-02 +1.008571e-01 +9.897149e-01 -1.008571e-01
1.678804e+07 +9.889873e-01 -1.043250e-01 +1.101269e-02 +1.043250e-01 +1.101269e-02 +1.043250e-01 +9.889873e-01 -1.043250e-01
1.737801e+07 +9.882089e-01 -1.079065e-01 +1.179110e-02 +1.079065e-01 +1.179110e-02 +1.079065e-01 +9.882089e-01 -1.079065e-01
1.798871e+07 +9.873762e-01 -1.116048e-01 +1.262383e-02 +1.116048e-01 +1.262383e-02 +1.116048e-01 +9.873762e-01 -1.116048e-01
1.862087e+07 +9.864854e-01 -1.154230e-01 +1.351458e-02 +1.154230e-01 +1.351458e-02 +1.154230e-01 +9.864854e-01 -1.154230e-01
1.927525e+07 +9.855327e-01 -1.193643e-01 +1.446726e-02 +1.193643e-01 +1.446726e-02 +1.193643e-01 +9.855327e-01 -1.193643e-01
1.995262e+07 +9.845139e-01 -1.234318e-01 +1.548605e-02 +1.234318e-01 +1.548605e-02 +1.234318e-01 +9.845139e-01 -1.234318e-01
2.065380e+07 +9.834246e-01 -1.276286e-01 +1.657540e-02 +1.276286e-01 +1.657540e-02 +1.276286e-01 +9.834246e-01 -1.276286e-01
2.137962e+07 +9.822600e-01 -1.319579e-01 +1.774000e-02 +1.319579e-01 +1.774000e-02 +1.319579e-01 +9.822600e-01 -1.319579e-01
2.213095e+07 +9.810151e-01 -1.364227e-01 +1.898486e-02 +1.364227e-01 +1.898486e-02 +1.364227e-01 +9.810151e-01 -1.364227e-01
2.290868e+07 +9.796847e-01 -1.410261e-01 +2.031528e-02 +1.410261e-01 +2.031528e-02 +1.410261e-01 +9.796847e-01 -1.410261e-01
2.371374e+07 +9.782631e-01 -1.457710e-01 +2.173689e-02 +1.457710e-01 +2.173689e-02 +1.457710e-01 +9.782631e-01 -1.457710e-01
2.454709e+07 +9.767444e-01 -1.506604e-01 +2.325563e-02 +1.506604e-01 +2.325563e-02 +1.506604e-01 +9.767444e-01 -1.506604e-01
2.540973e+07 +9.751222e-01 -1.556969e-01 +2.487782e-02 +1.556969e-01 +2.487782e-02 +1.556969e-01 +9.751222e-01 -1.556969e-01
2.630268e+07 +9.733899e-01 -1.608831e-01 +2.661010e-02 +1.608831e-01 +2.661010e-02 +1.608831e-01 +9.733899e-01 -1.608831e-01
2.722701e+07 +9.715405e-01 -1.662217e-01 +2.845951e-02 +1.662217e-01 +2.845951e-02 +1.662217e-01 +9.715405e-01 -1.662217e-01
2.818383e+07 +9.695665e-01 -1.717148e-01 +3.043347e-02 +1.717148e-01 +3.043347e-02 +1.717148e-01 +9.695665e-01 -1.717148e-01
2.917427e+07 +9.674602e-01 -1.773646e-01 +3.253980e-02 +1.773646e-01 +3.253980e-02 +1.773646e-01 +9.674602e-01 -1.773646e-01
3.019952e+07 +9.652133e-01 -1.831728e-01 +3.478672e-02 +1.831728e-01 +3.478672e-02 +1.831728e-01 +9.652133e-01 -1.831728e-01
3.126079e+07 +9.628171e-01 -1.891410e-01 +3.718288e-02 +1.891410e-01 +3.718288e-02 +1.891410e-01 +9.628171e-01 -1.891410e-01
3.235937e+07 +9.602626e-01 -1.952703e-01 +3.973736e-02 +1.952703e-01 +3.973736e-02 +1.952703e-01 +9.602626e-01 -1.952703e-01
3.349654e+07 +9.575403e-01 -2.015617e-01 +4.245965e-02 +2.015617e-01 +4.245965e-02 +2.015617e-01 +9.575403e-01 -2.015617e-01
3.467369e+07 +9.546403e-01 -2.080156e-01 +4.535971e-02 +2.080156e-01 +4.535971e-02 +2.080156e-01 +9.546403e-01 -2.080156e-01
3.589219e+07 +9.515521e-01 -2.146318e-01 +4.844791e-02 +2.146318e-01 +4.844791e-02 +2.146318e-01 +9.515521e-01 -2.146318e-01
3.715352e+07 +9.482649e-01 -2.214099e-01 +5.173506e-02 +2.214099e-01 +5.173506e-02 +2.214099e-01 +9.482649e-01 -2.214099e-01
3.845918e+07 +9.447676e-01 -2.283487e-01 +5.523240e-02 +2.283487e-01 +5.523240e-02 +2.283487e-01 +9.447676e-01 -2.283487e-01
3.981072e+07 +9.410484e-01 -2.354465e-01 +5.895160e-02 +2.354465e-01 +5.895160e-02 +2.354465e-01 +9.410484e-01 -2.354465e-01
4.120975e+07 +9.370953e-01 -2.427008e-01 +6.290470e-02 +2.427008e-01 +6.290470e-02 +2.427008e-01 +9.370953e-01 -2.427008e-01
4.265795e+07 +9.328959e-01 -2.501085e-01 +6.710415e-02 +2.501085e-01 +6.710415e-02 +2.501085e-01 +9.328959e-01 -2.501085e-01
4.415704e+07 +9.284373e-01 -2.576654e-01 +7.156272e-02 +2.576654e-01 +7.156272e-02 +2.576654e-01 +9.284373e-01 -2.576654e-01
4.570882e+07 +9.237065e-01 -2.653666e-01 +7.629352e-02 +2.653666e-01 +7.629352e-02 +2.653666e-01 +9.237065e-01 -2.653666e-01
4.731513e+07 +9.186901e-01 -2.732064e-01 +8.130990e-02 +2.732064e-01 +8.130990e-02 +2.732064e-01 +9.186901e-01 -2.732064e-01
4.897788e+07 +9.133745e-01 -2.811777e-01 +8.662545e-02 +2.811777e-01 +8.662545e-02 +2.811777e-01 +9.133745e-01 -2.811777e-01
5.069907e+07 +9.077461e-01 -2.892725e-01 +9.225392e-02 +2.892725e-01 +9.225392e-02 +2.892725e-01 +9.077461e-01 -2.892725e-01
5.248075e+07 +9.017909e-01 -2.974817e-01 +9.820911e-02 +2.974817e-01 +9.820911e-02 +2.974817e-01 +9.017909e-01 -2.974817e-01
5.432503e+07 +8.954951e-01 -3.057949e-01 +1.045049e-01 +3.057949e-01 +1.045049e-01 +3.057949e-01 +8.954951e-01 -3.057949e-01
5.623413e+07 +8.888451e-01 -3.142002e-01 +1.111549e-01 +3.142002e-01 +1.111549e-01 +3.142002e-01 +8.888451e-01 -3.142002e-01
5.821032e+07 +8.818272e-01 -3.226846e-01 +1.181728e-01 +3.226846e-01 +1.181728e-01 +3.226846e-01 +8.818272e-01 -3.226846e-01
6.025596e+07 +8.744283e-01 -3.312335e-01 +1.255717e-01 +3.312335e-01 +1.255717e-01 +3.312335e-01 +8.744283e-01 -3.312335e-01
6.237348e+07 +8.666355e-01 -3.398310e-01 +1.333645e-01 +3.398310e-01 +1.333645e-01 +3.398310e-01 +8.666355e-01 -3.398310e-01
6.456542e+07 +8.584367e-01 -3.484596e-01 +1.415633e-01 +3.484596e-01 +1.415633e-01 +3.484596e-01 +8.584367e-01 -3.484596e-01
6.683439e+07 +8.498204e-01 -3.571003e-01 +1.501796e-01 +3.571003e-01 +1.501796e-01 +3.571003e-01 +8.498204e-01 -3.571003e-01
6.918310e+07 +8.407760e-01 -3.657326e-01 +1.592240e-01 +3.657326e-01 +1.592240e-01 +3.657326e-01 +8.407760e-01 -3.657326e-01
7.161434e+07 +8.312941e-01 -3.743344e-01 +1.687059e-01 +3.743344e-01 +1.687059e-01 +3.743344e-01 +8.312941e-01 -3.743344e-01
7.413102e+07 +8.213663e-01 -3.828822e-01 +1.786337e-01 +3.828822e-01 +1.786337e-01 +3.828822e-01 +8.213663e-01 -3.828822e-01
7.673615e+07 +8.109858e-01 -3.913510e-01 +1.890142e-01 +3.913510e-01 +1.890142e-01 +3.913510e-01 +8.109858e-01 -3.913510e-01
7.943282e+07 +8.001474e-01 -3.997145e-01 +1.998526e-01 +3.997145e-01 +1.998526e-01 +3.997145e-01 +8.001474e-01 -3.997145e-01
8.222426e+07 +7.888478e-01 -4.079451e-01 +2.111522e-01 +4.079451e-01 +2.111522e-01 +4.079451e-01 +7.888478e-01 -4.079451e-01
8.511380e+07 +7.770855e-01 -4.160141e-01 +2.229145e-01 +4.160141e-01 +2.229145e-01 +4.160141e-01 +7.770855e-01 -4.160141e-01
8.810489e+07 +7.648613e-01 -4.238915e-01 +2.351387e-01 +4.238915e-01 +2.351387e-01 +4.238915e-01 +7.648613e-01 -4.238915e-01
9.120108e+07 +7.521783e-01 -4.315470e-01 +2.478217e-01 +4.315470e-01 +2.478217e-01 +4.315470e-01 +7.521783e-01 -4.315470e-01
9.440609e+07 +7.390421e-01 -4.389491e-01 +2.609579e-01 +4.389491e-01 +2.609579e-01 +4.389491e-01 +7.390421e-01 -4.389491e-01
9.772372e+07 +7.254611e-01 -4.460664e-01 +2.745389e-01 +4.460664e-01 +2.745389e-01 +4.460664e-01 +7.254611e-01 -4.460664e-01
1.011579e+08 +7.114462e-01 -4.528672e-01 +2.885538e-01 +4.528672e-01 +2.885538e-01 +4.528672e-01 +7.114462e-01 -4.528672e-01
1.047129e+08 +6.970114e-01 -4.593197e-01 +3.029886e-01 +4.593197e-01 +3.029886e-01 +4.593197e-01 +6.970114e-01 -4.593197e-01
1.083927e+08 +6.821734e-01 -4.653929e-01 +3.178266e-01 +4.653929e-01 +3.178266e-01 +4.653929e-01 +6.821734e-01 -4.653929e-01
1.122018e+08 +6.669520e-01 -4.710563e-01 +3.330480e-01 +4.710563e-01 +3.330480e-01 +4.710563e-01 +6.669520e-01 -4.710563e-01
1.161449e+08 +6.513698e-01 -4.762807e-01 +3.486302e-01 +4.762807e-01 +3.486302e-01 +4.762807e-01 +6.513698e-01 -4.762807e-01
1.202264e+08 +6.354522e-01 -4.810381e-01 +3.645478e-01 +4.810381e-01 +3.645478e-01 +4.810381e-01 +6.354522e-01 -4.810381e-01
1.244515e+08 +6.192275e-01 -4.853024e-01 +3.807725e-01 +4.853024e-01 +3.807725e-01 +4.853024e-01 +6.192275e-01 -4.853024e-01
1.288250e+08 +6.027264e-01 -4.890495e-01 +3.972736e-01 +4.890495e-01 +3.972736e-01 +4.890495e-01 +6.027264e-01 -4.890495e-01
1.333521e+08 +5.859822e-01 -4.922575e-01 +4.140178e-01 +4.922575e-01 +4.140178e-01 +4.922575e-01 +5.859822e-01 -4.922575e-01
1.380384e+08 +5.690302e-01 -4.949074e-01 +4.309698e-01 +4.949074e-01 +4.309698e-01 +4.949074e-01 +5.690302e-01 -4.949074e-01
1.428894e+08 +5.519077e-01 -4.969830e-01 +4.480923e-01 +4.969830e-01 +4.480923e-01 +4.969830e-01 +5.519077e-01 -4.969830e-01
1.479108e+08 +5.346533e-01 -4.984713e-01 +4.653467e-01 +4.984713e-01 +4.653467e-01 +4.984713e-01 +5.346533e-01 -4.984713e-01
1.531087e+08 +5.173073e-01 -4.993624e-01 +4.826927e-01 +4.993624e-01 +4.826927e-01 +4.993624e-01 +5.173073e-01 -4.993624e-01
1.584893e+08 +4.999105e-01 -4.996501e-01 +5.000895e-01 +4.996501e-01 +5.000895e-01 +4.996501e-01 +4.999105e-01 -4.996501e-01
1.640590e+08 +4.825042e-01 -4.993315e-01 +5.174958e-01 +4.993315e-01 +5.174958e-01 +4.993315e-01 +4.825042e-01 -4.993315e-01
1.698244e+08 +4.651300e-01 -4.984074e-01 +5.348700e-01 +4.984074e-01 +5.348700e-01 +4.984074e-01 +4.651300e-01 -4.984074e-01
1.757924e+08 +4.478291e-01 -4.968822e-01 +5.521709e-01 +4.968822e-01 +5.521709e-01 +4.968822e-01 +4.478291e-01 -4.968822e-01
1.819701e+08 +4.306419e-01 -4.947638e-01 +5.693581e-01 +4.947638e-01 +5.693581e-01 +4.947638e-01 +4.306419e-01 -4.947638e-01
1.883649e+08 +4.136078e-01 -4.920632e-01 +5.863922e-01 +4.920632e-01 +5.863922e-01 +4.920632e-01 +4.136078e-01 -4.920632e-01
1.949845e+08 +3.967649e-01 -4.887950e-01 +6.032351e-01 +4.887950e-01 +6.032351e-01 +4.887950e-01 +3.967649e-01 -4.887950e-01
2.018366e+08 +3.801494e-01 -4.849765e-01 +6.198506e-01 +4.849765e-01 +6.198506e-01 +4.849765e-01 +3.801494e-01 -4.849765e-01
2.089296e+08 +3.637956e-01 -4.806281e-01 +6.362044e-01 +4.806281e-01 +6.362044e-01 +4.806281e-01 +3.637956e-01 -4.806281e-01
2.162719e+08 +3.477353e-01 -4.757722e-01 +6.522647e-01 +4.757722e-01 +6.522647e-01 +4.757722e-01 +3.477353e-01 -4.757722e-01
2.238721e+08 +3.319980e-01 -4.704339e-01 +6.680020e-01 +4.704339e-01 +6.680020e-01 +4.704339e-01 +3.319980e-01 -4.704339e-01
2.317395e+08 +3.166104e-01 -4.646399e-01 +6.833896e-01 +4.646399e-01 +6.833896e-01 +4.646399e-01 +3.166104e-01 -4.646399e-01
2.398833e+08 +3.015965e-01 -4.584185e-01 +6.984035e-01 +4.584185e-01 +6.984035e-01 +4.584185e-01 +3.015965e-01 -4.584185e-01
2.400000e+08 +3.013878e-01 -4.583280e-01 +6.986122e-01 +4.583280e-01 +6.986122e-01 +4.583280e-01 +3.013878e-01 -4.583280e-01
2.476412e+08 +2.881098e-01 -4.523324e-01 +7.118902e-01 +4.523324e-01 +7.118902e-01 +4.523324e-01 +2.881098e-01 -4.523324e-01
2.483133e+08 +2.869773e-01 -4.517992e-01 +7.130227e-01 +4.517992e-01 +7.130227e-01 +4.517992e-01 +2.869773e-01 -4.517992e-01
2.555257e+08 +2.751707e-01 -4.460322e-01 +7.248293e-01 +4.460322e-01 +7.248293e-01 +4.460322e-01 +2.751707e-01 -4.460322e-01
2.570396e+08 +2.727710e-01 -4.448126e-01 +7.272290e-01 +4.448126e-01 +7.272290e-01 +4.448126e-01 +2.727710e-01 -4.448126e-01
2.636612e+08 +2.625822e-01 -4.394508e-01 +7.374178e-01 +4.394508e-01 +7.374178e-01 +4.394508e-01 +2.625822e-01 -4.394508e-01
2.660725e+08 +2.589928e-01 -4.374897e-01 +7.410072e-01 +4.374897e-01 +7.410072e-01 +4.374897e-01 +2.589928e-01 -4.374897e-01
2.720558e+08 +2.503540e-01 -4.326113e-01 +7.496460e-01 +4.326113e-01 +7.496460e-01 +4.326113e-01 +2.503540e-01 -4.326113e-01
2.754229e+08 +2.456551e-01 -4.298616e-01 +7.543449e-01 +4.298616e-01 +7.543449e-01 +4.298616e-01 +2.456551e-01 -4.298616e-01
2.807176e+08 +2.384939e-01 -4.255371e-01 +7.615061e-01 +4.255371e-01 +7.615061e-01 +4.255371e-01 +2.384939e-01 -4.255371e-01
2.851018e+08 +2.327674e-01 -4.219598e-01 +7.672326e-01 +4.219598e-01 +7.672326e-01 +4.219598e-01 +2.327674e-01 -4.219598e-01
2.896552e+08 +2.270077e-01 -4.182517e-01 +7.729923e-01 +4.182517e-01 +7.729923e-01 +4.182517e-01 +2.270077e-01 -4.182517e-01
2.951209e+08 +2.203365e-01 -4.138151e-01 +7.796635e-01 +4.138151e-01 +7.796635e-01 +4.138151e-01 +2.203365e-01 -4.138151e-01
2.988773e+08 +2.158996e-01 -4.107779e-01 +7.841004e-01 +4.107779e-01 +7.841004e-01 +4.107779e-01 +2.158996e-01 -4.107779e-01
3.054921e+08 +2.083668e-01 -4.054581e-01 +7.916332e-01 +4.054581e-01 +7.916332e-01 +4.054581e-01 +2.083668e-01 -4.054581e-01
3.083931e+08 +2.051720e-01 -4.031383e-01 +7.948280e-01 +4.031383e-01 +7.948280e-01 +4.031383e-01 +2.051720e-01 -4.031383e-01
3.162278e+08 +1.968600e-01 -3.969186e-01 +8.031400e-01 +3.969186e-01 +8.031400e-01 +3.969186e-01 +1.968600e-01 -3.969186e-01
3.182118e+08 +1.948258e-01 -3.953549e-01 +8.051742e-01 +3.953549e-01 +8.051742e-01 +3.953549e-01 +1.948258e-01 -3.953549e-01
3.273407e+08 +1.858159e-01 -3.882252e-01 +8.141841e-01 +3.882252e-01 +8.141841e-01 +3.882252e-01 +1.858159e-01 -3.882252e-01
3.283431e+08 +1.848603e-01 -3.874491e-01 +8.151397e-01 +3.874491e-01 +8.151397e-01 +3.874491e-01 +1.848603e-01 -3.874491e-01
3.387970e+08 +1.752735e-01 -3.794414e-01 +8.247265e-01 +3.794414e-01 +8.247265e-01 +3.794414e-01 +1.752735e-01 -3.794414e-01
3.388442e+08 +1.752318e-01 -3.794057e-01 +8.247682e-01 +3.794057e-01 +8.247682e-01 +3.794057e-01 +1.752318e-01 -3.794057e-01
3.495838e+08 +1.660619e-01 -3.713516e-01 +8.339381e-01 +3.713516e-01 +8.339381e-01 +3.713516e-01 +1.660619e-01 -3.713516e-01
3.507519e+08 +1.651034e-01 -3.704865e-01 +8.348966e-01 +3.704865e-01 +8.348966e-01 +3.704865e-01 +1.651034e-01 -3.704865e-01
3.607140e+08 +1.572211e-01 -3.631985e-01 +8.427789e-01 +3.631985e-01 +8.427789e-01 +3.631985e-01 +1.572211e-01 -3.631985e-01
3.630781e+08 +1.554247e-01 -3.614928e-01 +8.445753e-01 +3.614928e-01 +8.445753e-01 +3.614928e-01 +1.554247e-01 -3.614928e-01
3.721985e+08 +1.487457e-01 -3.549999e-01 +8.512543e-01 +3.549999e-01 +8.512543e-01 +3.549999e-01 +1.487457e-01 -3.549999e-01
3.758374e+08 +1.461880e-01 -3.524483e-01 +8.538120e-01 +3.524483e-01 +8.538120e-01 +3.524483e-01 +1.461880e-01 -3.524483e-01
3.840487e+08 +1.406290e-01 -3.467728e-01 +8.593710e-01 +3.467728e-01 +8.593710e-01 +3.467728e-01 +1.406290e-01 -3.467728e-01
3.890451e+08 +1.373844e-01 -3.433752e-01 +8.626156e-01 +3.433752e-01 +8.626156e-01 +3.433752e-01 +1.373844e-01 -3.433752e-01
3.962762e+08 +1.328640e-01 -3.385329e-01 +8.671360e-01 +3.385329e-01 +8.671360e-01 +3.385329e-01 +1.328640e-01 -3.385329e-01
4.027170e+08 +1.290039e-01 -3.342942e-01 +8.709961e-01 +3.342942e-01 +8.709961e-01 +3.342942e-01 +1.290039e-01 -3.342942e-01
4.088930e+08 +1.254425e-01 -3.302952e-01 +8.745575e-01 +3.302952e-01 +8.745575e-01 +3.302952e-01 +1.254425e-01 -3.302952e-01
4.168694e+08 +1.210353e-01 -3.252245e-01 +8.789647e-01 +3.252245e-01 +8.789647e-01 +3.252245e-01 +1.210353e-01 -3.252245e-01
4.219114e+08 +1.183561e-01 -3.220733e-01 +8.816439e-01 +3.220733e-01 +8.816439e-01 +3.220733e-01 +1.183561e-01 -3.220733e-01
4.315191e+08 +1.134670e-01 -3.161836e-01 +8.865330e-01 +3.161836e-01 +8.865330e-01 +3.161836e-01 +1.134670e-01 -3.161836e-01
4.353444e+08 +1.115957e-01 -3.138800e-01 +8.884043e-01 +3.138800e-01 +8.884043e-01 +3.138800e-01 +1.115957e-01 -3.138800e-01
4.466836e+08 +1.062863e-01 -3.071878e-01 +8.937137e-01 +3.071878e-01 +8.937137e-01 +3.071878e-01 +1.062863e-01 -3.071878e-01
4.492051e+08 +1.051519e-01 -3.057270e-01 +8.948481e-01 +3.057270e-01 +8.948481e-01 +3.057270e-01 +1.051519e-01 -3.057270e-01
4.623810e+08 +9.948027e-02 -2.982516e-01 +9.005197e-01 +2.982516e-01 +9.005197e-01 +2.982516e-01 +9.948027e-02 -2.982516e-01
4.635070e+08 +9.901476e-02 -2.976249e-01 +9.009852e-01 +2.976249e-01 +9.009852e-01 +2.976249e-01 +9.901476e-02 -2.976249e-01
4.782643e+08 +9.317442e-02 -2.895835e-01 +9.068256e-01 +2.895835e-01 +9.068256e-01 +2.895835e-01 +9.317442e-02 -2.895835e-01
4.786301e+08 +9.303559e-02 -2.893882e-01 +9.069644e-01 +2.893882e-01 +9.069644e-01 +2.893882e-01 +9.303559e-02 -2.893882e-01
4.934915e+08 +8.762067e-02 -2.816116e-01 +9.123793e-01 +2.816116e-01 +9.123793e-01 +2.816116e-01 +8.762067e-02 -2.816116e-01
4.954502e+08 +8.693863e-02 -2.806094e-01 +9.130614e-01 +2.806094e-01 +9.130614e-01 +2.806094e-01 +8.693863e-02 -2.806094e-01
5.092034e+08 +8.234325e-02 -2.737169e-01 +9.176567e-01 +2.737169e-01 +9.176567e-01 +2.737169e-01 +8.234325e-02 -2.737169e-01
5.128614e+08 +8.117567e-02 -2.719255e-01 +9.188243e-01 +2.719255e-01 +9.188243e-01 +2.719255e-01 +8.117567e-02 -2.719255e-01
5.254156e+08 +7.733186e-02 -2.659064e-01 +9.226681e-01 +2.659064e-01 +9.226681e-01 +2.659064e-01 +7.733186e-02 -2.659064e-01
5.308844e+08 +7.573292e-02 -2.633456e-01 +9.242671e-01 +2.633456e-01 +9.242671e-01 +2.633456e-01 +7.573292e-02 -2.633456e-01
5.421440e+08 +7.257624e-02 -2.581863e-01 +9.274238e-01 +2.581863e-01 +9.274238e-01 +2.581863e-01 +7.257624e-02 -2.581863e-01
5.495409e+08 +7.059667e-02 -2.548777e-01 +9.294033e-01 +2.548777e-01 +9.294033e-01 +2.548777e-01 +7.059667e-02 -2.548777e-01
5.594050e+08 +6.806619e-02 -2.505619e-01 +9.319338e-01 +2.505619e-01 +9.319338e-01 +2.505619e-01 +6.806619e-02 -2.505619e-01
5.688529e+08 +6.575334e-02 -2.465285e-01 +9.342467e-01 +2.465285e-01 +9.342467e-01 +2.465285e-01 +6.575334e-02 -2.465285e-01
5.772155e+08 +6.379164e-02 -2.430378e-01 +9.362084e-01 +2.430378e-01 +9.362084e-01 +2.430378e-01 +6.379164e-02 -2.430378e-01
5.888437e+08 +6.118953e-02 -2.383037e-01 +9.388105e-01 +2.383037e-01 +9.388105e-01 +2.383037e-01 +6.118953e-02 -2.383037e-01
5.955931e+08 +5.974265e-02 -2.356178e-01 +9.402573e-01 +2.356178e-01 +9.402573e-01 +2.356178e-01 +5.974265e-02 -2.356178e-01
6.095369e+08 +5.689209e-02 -2.302079e-01 +9.431079e-01 +2.302079e-01 +9.431079e-01 +2.302079e-01 +5.689209e-02 -2.302079e-01
6.145558e+08 +5.590950e-02 -2.283051e-01 +9.440905e-01 +2.283051e-01 +9.440905e-01 +2.283051e-01 +5.590950e-02 -2.283051e-01
6.309573e+08 +5.284819e-02 -2.222447e-01 +9.471518e-01 +2.222447e-01 +9.471518e-01 +2.222447e-01 +5.284819e-02 -2.222447e-01
6.341223e+08 +5.228264e-02 -2.211023e-01 +9.477174e-01 +2.211023e-01 +9.477174e-01 +2.211023e-01 +5.228264e-02 -2.211023e-01
6.531306e+08 +4.904533e-02 -2.144171e-01 +9.509547e-01 +2.144171e-01 +9.509547e-01 +2.144171e-01 +4.904533e-02 -2.144171e-01
6.543117e+08 +4.885280e-02 -2.140114e-01 +9.511472e-01 +2.140114e-01 +9.511472e-01 +2.140114e-01 +4.885280e-02 -2.140114e-01
6.751439e+08 +4.561094e-02 -2.070338e-01 +9.543891e-01 +2.070338e-01 +9.543891e-01 +2.070338e-01 +4.561094e-02 -2.070338e-01
6.760830e+08 +4.547138e-02 -2.067270e-01 +9.545286e-01 +2.067270e-01 +9.545286e-01 +2.067270e-01 +4.547138e-02 -2.067270e-01
6.966394e+08 +4.254829e-02 -2.001704e-01 +9.574517e-01 +2.001704e-01 +9.574517e-01 +2.001704e-01 +4.254829e-02 -2.001704e-01
6.998420e+08 +4.211461e-02 -1.991756e-01 +9.578854e-01 +1.991756e-01 +9.578854e-01 +1.991756e-01 +4.211461e-02 -1.991756e-01
7.188193e+08 +3.965637e-02 -1.934218e-01 +9.603436e-01 +1.934218e-01 +9.603436e-01 +1.934218e-01 +3.965637e-02 -1.934218e-01
7.244360e+08 +3.896371e-02 -1.917636e-01 +9.610363e-01 +1.917636e-01 +9.610363e-01 +1.917636e-01 +3.896371e-02 -1.917636e-01
7.417053e+08 +3.692700e-02 -1.867879e-01 +9.630730e-01 +1.867879e-01 +9.630730e-01 +1.867879e-01 +3.692700e-02 -1.867879e-01
7.498942e+08 +3.600779e-02 -1.844909e-01 +9.639922e-01 +1.844909e-01 +9.639922e-01 +1.844909e-01 +3.600779e-02 -1.844909e-01
7.653200e+08 +3.435229e-02 -1.802685e-01 +9.656477e-01 +1.802685e-01 +9.656477e-01 +1.802685e-01 +3.435229e-02 -1.802685e-01
7.762471e+08 +3.323641e-02 -1.773570e-01 +9.667636e-01 +1.773570e-01 +9.667636e-01 +1.773570e-01 +3.323641e-02 -1.773570e-01
7.896865e+08 +3.192463e-02 -1.738628e-01 +9.680754e-01 +1.738628e-01 +9.680754e-01 +1.738628e-01 +3.192463e-02 -1.738628e-01
8.035261e+08 +3.063959e-02 -1.703606e-01 +9.693604e-01 +1.703606e-01 +9.693604e-01 +1.703606e-01 +3.063959e-02 -1.703606e-01
8.148288e+08 +2.963675e-02 -1.675698e-01 +9.703632e-01 +1.675698e-01 +9.703632e-01 +1.675698e-01 +2.963675e-02 -1.675698e-01
8.317638e+08 +2.820777e-02 -1.635002e-01 +9.717922e-01 +1.635002e-01 +9.717922e-01 +1.635002e-01 +2.820777e-02 -1.635002e-01
8.407716e+08 +2.748166e-02 -1.613882e-01 +9.725183e-01 +1.613882e-01 +9.725183e-01 +1.613882e-01 +2.748166e-02 -1.613882e-01
8.609938e+08 +2.593185e-02 -1.567738e-01 +9.740681e-01 +1.567738e-01 +9.740681e-01 +1.567738e-01 +2.593185e-02 -1.567738e-01
8.675404e+08 +2.545269e-02 -1.553163e-01 +9.745473e-01 +1.553163e-01 +9.745473e-01 +1.553163e-01 +2.545269e-02 -1.553163e-01
8.912509e+08 +2.380318e-02 -1.501790e-01 +9.761968e-01 +1.501790e-01 +9.761968e-01 +1.501790e-01 +2.380318e-02 -1.501790e-01
8.951615e+08 +2.354344e-02 -1.493523e-01 +9.764566e-01 +1.493523e-01 +9.764566e-01 +1.493523e-01 +2.354344e-02 -1.493523e-01
9.225714e+08 +2.181352e-02 -1.437131e-01 +9.781865e-01 +1.437131e-01 +9.781865e-01 +1.437131e-01 +2.181352e-02 -1.437131e-01
9.236620e+08 +2.174783e-02 -1.434941e-01 +9.782522e-01 +1.434941e-01 +9.782522e-01 +1.434941e-01 +2.174783e-02 -1.434941e-01
9.530699e+08 +2.006007e-02 -1.377395e-01 +9.799399e-01 +1.377395e-01 +9.799399e-01 +1.377395e-01 +2.006007e-02 -1.377395e-01
9.549926e+08 +1.995510e-02 -1.373730e-01 +9.800449e-01 +1.373730e-01 +9.800449e-01 +1.373730e-01 +1.995510e-02 -1.373730e-01
9.834140e+08 +1.847462e-02 -1.320861e-01 +9.815254e-01 +1.320861e-01 +9.815254e-01 +1.320861e-01 +1.847462e-02 -1.320861e-01
9.885531e+08 +1.822052e-02 -1.311555e-01 +9.817795e-01 +1.311555e-01 +9.817795e-01 +1.311555e-01 +1.822052e-02 -1.311555e-01
1.014724e+09 +1.698627e-02 -1.265311e-01 +9.830137e-01 +1.265311e-01 +9.830137e-01 +1.265311e-01 +1.698627e-02 -1.265311e-01
1.023293e+09 +1.660282e-02 -1.250571e-01 +9.833972e-01 +1.250571e-01 +9.833972e-01 +1.250571e-01 +1.660282e-02 -1.250571e-01
1.047031e+09 +1.559003e-02 -1.210718e-01 +9.844100e-01 +1.210718e-01 +9.844100e-01 +1.210718e-01 +1.559003e-02 -1.210718e-01
1.059254e+09 +1.509544e-02 -1.190740e-01 +9.849046e-01 +1.190740e-01 +9.849046e-01 +1.190740e-01 +1.509544e-02 -1.190740e-01
1.080367e+09 +1.428121e-02 -1.157054e-01 +9.857188e-01 +1.157054e-01 +9.857188e-01 +1.157054e-01 +1.428121e-02 -1.157054e-01
1.096478e+09 +1.369217e-02 -1.132023e-01 +9.863078e-01 +1.132023e-01 +9.863078e-01 +1.132023e-01 +1.369217e-02 -1.132023e-01
1.114764e+09 +1.305534e-02 -1.104288e-01 +9.869447e-01 +1.104288e-01 +9.869447e-01 +1.104288e-01 +1.305534e-02 -1.104288e-01
1.135011e+09 +1.238722e-02 -1.074380e-01 +9.876128e-01 +1.074380e-01 +9.876128e-01 +1.074380e-01 +1.238722e-02 -1.074380e-01
1.150257e+09 +1.190824e-02 -1.052390e-01 +9.880918e-01 +1.052390e-01 +9.880918e-01 +1.052390e-01 +1.190824e-02 -1.052390e-01
1.174898e+09 +1.117511e-02 -1.017769e-01 +9.888249e-01 +1.017769e-01 +9.888249e-01 +1.017769e-01 +1.117511e-02 -1.017769e-01
1.186879e+09 +1.083593e-02 -1.001328e-01 +9.891641e-01 +1.001328e-01 +9.891641e-01 +1.001328e-01 +1.083593e-02 -1.001328e-01
1.216186e+09 +1.005074e-02 -9.621459e-02 +9.899493e-01 +9.621459e-02 +9.899493e-01 +9.621459e-02 +1.005074e-02 -9.621459e-02
1.224667e+09 +9.834688e-03 -9.510697e-02 +9.901653e-01 +9.510697e-02 +9.901653e-01 +9.510697e-02 +9.834688e-03 -9.510697e-02
1.258925e+09 +9.009342e-03 -9.074671e-02 +9.909907e-01 +9.074671e-02 +9.909907e-01 +9.074671e-02 +9.009342e-03 -9.074671e-02
1.263659e+09 +8.900998e-03 -9.015812e-02 +9.910990e-01 +9.015812e-02 +9.910990e-01 +9.015812e-02 +8.900998e-03 -9.015812e-02
1.303167e+09 +8.046452e-03 -8.536876e-02 +9.919535e-01 +8.536876e-02 +9.919535e-01 +8.536876e-02 +8.046452e-03 -8.536876e-02
1.303891e+09 +8.031572e-03 -8.528290e-02 +9.919684e-01 +8.528290e-02 +9.919684e-01 +8.528290e-02 +8.031572e-03 -8.528290e-02
1.345405e+09 +7.223327e-03 -8.047790e-02 +9.927767e-01 +8.047790e-02 +9.927767e-01 +8.047790e-02 +7.223327e-03 -8.047790e-02
1.348963e+09 +7.157927e-03 -8.007614e-02 +9.928421e-01 +8.007614e-02 +9.928421e-01 +8.007614e-02 +7.157927e-03 -8.007614e-02
1.388241e+09 +6.473380e-03 -7.573964e-02 +9.935266e-01 +7.573964e-02 +9.935266e-01 +7.573964e-02 +6.473380e-03 -7.573964e-02
1.396368e+09 +6.339921e-03 -7.486422e-02 +9.936601e-01 +7.486422e-02 +9.936601e-01 +7.486422e-02 +6.339921e-03 -7.486422e-02
1.432440e+09 +5.779046e-03 -7.106463e-02 +9.942210e-01 +7.106463e-02 +9.942210e-01 +7.106463e-02 +5.779046e-03 -7.106463e-02
1.445440e+09 +5.588872e-03 -6.972830e-02 +9.944111e-01 +6.972830e-02 +9.944111e-01 +6.972830e-02 +5.588872e-03 -6.972830e-02
1.478047e+09 +5.137826e-03 -6.644932e-02 +9.948622e-01 +6.644932e-02 +9.948622e-01 +6.644932e-02 +5.137826e-03 -6.644932e-02
1.496236e+09 +4.901494e-03 -6.466365e-02 +9.950985e-01 +6.466365e-02 +9.950985e-01 +6.466365e-02 +4.901494e-03 -6.466365e-02
1.525105e+09 +4.547402e-03 -6.189017e-02 +9.954526e-01 +6.189017e-02 +9.954526e-01 +6.189017e-02 +4.547402e-03 -6.189017e-02
1.548817e+09 +4.274767e-03 -5.966551e-02 +9.957252e-01 +5.966551e-02 +9.957252e-01 +5.966551e-02 +4.274767e-03 -5.966551e-02
1.573662e+09 +4.005632e-03 -5.738360e-02 +9.959944e-01 +5.738360e-02 +9.959944e-01 +5.738360e-02 +4.005632e-03 -5.738360e-02
1.603245e+09 +3.705923e-03 -5.472907e-02 +9.962941e-01 +5.472907e-02 +9.962941e-01 +5.472907e-02 +3.705923e-03 -5.472907e-02
1.623765e+09 +3.510542e-03 -5.292602e-02 +9.964895e-01 +5.292602e-02 +9.964895e-01 +5.292602e-02 +3.510542e-03 -5.292602e-02
1.659587e+09 +3.192444e-03 -4.984952e-02 +9.968076e-01 +4.984952e-02 +9.968076e-01 +4.984952e-02 +3.192444e-03 -4.984952e-02
1.675463e+09 +3.060326e-03 -4.851382e-02 +9.969397e-01 +4.851382e-02 +9.969397e-01 +4.851382e-02 +3.060326e-03 -4.851382e-02
1.717908e+09 +2.732046e-03 -4.502202e-02 +9.972680e-01 +4.502202e-02 +9.972680e-01 +4.502202e-02 +2.732046e-03 -4.502202e-02
1.728807e+09 +2.653332e-03 -4.414337e-02 +9.973467e-01 +4.414337e-02 +9.973467e-01 +4.414337e-02 +2.653332e-03 -4.414337e-02
1.778279e+09 +2.322677e-03 -4.024172e-02 +9.976773e-01 +4.024172e-02 +9.976773e-01 +4.024172e-02 +2.322677e-03 -4.024172e-02
1.783849e+09 +2.288066e-03 -3.981107e-02 +9.977119e-01 +3.981107e-02 +9.977119e-01 +3.981107e-02 +2.288066e-03 -3.981107e-02
1.840644e+09 +1.963183e-03 -3.551326e-02 +9.980368e-01 +3.551326e-02 +9.980368e-01 +3.551326e-02 +1.963183e-03 -3.551326e-02
1.840772e+09 +1.962506e-03 -3.550377e-02 +9.980375e-01 +3.550377e-02 +9.980375e-01 +3.550377e-02 +1.962506e-03 -3.550377e-02
1.899247e+09 +1.677484e-03 -3.124633e-02 +9.983225e-01 +3.124633e-02 +9.983225e-01 +3.124633e-02 +1.677484e-03 -3.124633e-02
1.905461e+09 +1.649921e-03 -3.080328e-02 +9.983501e-01 +3.080328e-02 +9.983501e-01 +3.080328e-02 +1.649921e-03 -3.080328e-02
1.959716e+09 +1.429912e-03 -2.700662e-02 +9.985701e-01 +2.700662e-02 +9.985701e-01 +2.700662e-02 +1.429912e-03 -2.700662e-02
1.972423e+09 +1.383516e-03 -2.613540e-02 +9.986165e-01 +2.613540e-02 +9.986165e-01 +2.613540e-02 +1.383516e-03 -2.613540e-02
2.022110e+09 +1.219551e-03 -2.279049e-02 +9.987804e-01 +2.279049e-02 +9.987804e-01 +2.279049e-02 +1.219551e-03 -2.279049e-02
2.041738e+09 +1.162094e-03 -2.149525e-02 +9.988379e-01 +2.149525e-02 +9.988379e-01 +2.149525e-02 +1.162094e-03 -2.149525e-02
2.086491e+09 +1.045620e-03 -1.859430e-02 +9.989544e-01 +1.859430e-02 +9.989544e-01 +1.859430e-02 +1.045620e-03 -1.859430e-02
2.113489e+09 +9.846561e-04 -1.687794e-02 +9.990153e-01 +1.687794e-02 +9.990153e-01 +1.687794e-02 +9.846561e-04 -1.687794e-02
2.152921e+09 +9.074741e-04 -1.441440e-02 +9.990925e-01 +1.441440e-02 +9.990925e-01 +1.441440e-02 +9.074741e-04 -1.441440e-02
2.187762e+09 +8.504028e-04 -1.227860e-02 +9.991496e-01 +1.227860e-02 +9.991496e-01 +1.227860e-02 +8.504028e-04 -1.227860e-02
2.221467e+09 +8.045990e-04 -1.024715e-02 +9.991954e-01 +1.024715e-02 +9.991954e-01 +1.024715e-02 +8.045990e-04 -1.024715e-02
2.264644e+09 +7.587276e-04 -7.692352e-03 +9.992413e-01 +7.692352e-03 +9.992413e-01 +7.692352e-03 +7.587276e-04 -7.692352e-03
2.292195e+09 +7.366123e-04 -6.088895e-03 +9.992634e-01 +6.088895e-03 +9.992634e-01 +6.088895e-03 +7.366123e-04 -6.088895e-03
2.344229e+09 +7.092161e-04 -3.114305e-03 +9.992908e-01 +3.114305e-03 +9.992908e-01 +3.114305e-03 +7.092161e-04 -3.114305e-03
2.365174e+09 +7.032610e-04 -1.935987e-03 +9.992967e-01 +1.935987e-03 +9.992967e-01 +1.935987e-03 +7.032610e-04 -1.935987e-03
2.426610e+09 +7.016447e-04 +1.460419e-03 +9.992984e-01 -1.460419e-03 +9.992984e-01 -1.460419e-03 +7.016447e-04 +1.460419e-03
2.440478e+09 +7.044210e-04 +2.215219e-03 +9.992956e-01 -2.215219e-03 +9.992956e-01 -2.215219e-03 +7.044210e-04 +2.215219e-03
2.511886e+09 +7.359790e-04 +6.036702e-03 +9.992640e-01 -6.036702e-03 +9.992640e-01 -6.036702e-03 +7.359790e-04 +6.036702e-03
2.518178e+09 +7.400965e-04 +6.368372e-03 +9.992599e-01 -6.368372e-03 +9.992599e-01 -6.368372e-03 +7.400965e-04 +6.368372e-03
2.598353e+09 +8.104205e-04 +1.052712e-02 +9.991896e-01 -1.052712e-02 +9.991896e-01 -1.052712e-02 +8.104205e-04 +1.052712e-02
2.600160e+09 +8.123742e-04 +1.061943e-02 +9.991876e-01 -1.061943e-02 +9.991876e-01 -1.061943e-02 +8.123742e-04 +1.061943e-02
2.681080e+09 +9.156545e-04 +1.469511e-02 +9.990843e-01 -1.469511e-02 +9.990843e-01 -1.469511e-02 +9.156545e-04 +1.469511e-02
2.691535e+09 +9.311757e-04 +1.521347e-02 +9.990688e-01 -1.521347e-02 +9.990688e-01 -1.521347e-02 +9.311757e-04 +1.521347e-02
2.766442e+09 +1.056190e-03 +1.887599e-02 +9.989438e-01 -1.887599e-02 +9.989438e-01 -1.887599e-02 +1.056190e-03 +1.887599e-02
2.786121e+09 +1.092920e-03 +1.982372e-02 +9.989071e-01 -1.982372e-02 +9.989071e-01 -1.982372e-02 +1.092920e-03 +1.982372e-02
2.854521e+09 +1.232549e-03 +2.307340e-02 +9.987675e-01 -2.307340e-02 +9.987675e-01 -2.307340e-02 +1.232549e-03 +2.307340e-02
2.884032e+09 +1.298337e-03 +2.445505e-02 +9.987017e-01 -2.445505e-02 +9.987017e-01 -2.445505e-02 +1.298337e-03 +2.445505e-02
2.945404e+09 +1.445387e-03 +2.729100e-02 +9.985546e-01 -2.729100e-02 +9.985546e-01 -2.729100e-02 +1.445387e-03 +2.729100e-02
2.985383e+09 +1.548353e-03 +2.911234e-02 +9.984516e-01 -2.911234e-02 +9.984516e-01 -2.911234e-02 +1.548353e-03 +2.911234e-02
3.039181e+09 +1.695493e-03 +3.153243e-02 +9.983045e-01 -3.153243e-02 +9.983045e-01 -3.153243e-02 +1.695493e-03 +3.153243e-02
3.090295e+09 +1.844093e-03 +3.380048e-02 +9.981559e-01 -3.380048e-02 +9.981559e-01 -3.380048e-02 +1.844093e-03 +3.380048e-02
3.135943e+09 +1.983793e-03 +3.580133e-02 +9.980162e-01 -3.580133e-02 +9.980162e-01 -3.580133e-02 +1.983793e-03 +3.580133e-02
3.198895e+09 +2.186887e-03 +3.852433e-02 +9.978131e-01 -3.852433e-02 +9.978131e-01 -3.852433e-02 +2.186887e-03 +3.852433e-02
3.235787e+09 +2.311353e-03 +4.010134e-02 +9.976886e-01 -4.010134e-02 +9.976886e-01 -4.010134e-02 +2.311353e-03 +4.010134e-02
3.311311e+09 +2.578271e-03 +4.328876e-02 +9.974217e-01 -4.328876e-02 +9.974217e-01 -4.328876e-02 +2.578271e-03 +4.328876e-02
3.338809e+09 +2.679382e-03 +4.443609e-02 +9.973206e-01 -4.443609e-02 +9.973206e-01 -4.443609e-02 +2.679382e-03 +4.443609e-02
3.427678e+09 +3.019997e-03 +4.809863e-02 +9.969800e-01 -4.809863e-02 +9.969800e-01 -4.809863e-02 +3.019997e-03 +4.809863e-02
3.445111e+09 +3.089234e-03 +4.880923e-02 +9.969108e-01 -4.880923e-02 +9.969108e-01 -4.880923e-02 +3.089234e-03 +4.880923e-02
3.548134e+09 +3.514036e-03 +5.295881e-02 +9.964860e-01 -5.295881e-02 +9.964860e-01 -5.295881e-02 +3.514036e-03 +5.295881e-02
3.554798e+09 +3.542415e-03 +5.322438e-02 +9.964576e-01 -5.322438e-02 +9.964576e-01 -5.322438e-02 +3.542415e-03 +5.322438e-02
3.667977e+09 +4.040586e-03 +5.768514e-02 +9.959594e-01 -5.768514e-02 +9.959594e-01 -5.768514e-02 +4.040586e-03 +5.768514e-02
3.672823e+09 +4.062587e-03 +5.787412e-02 +9.959374e-01 -5.787412e-02 +9.959374e-01 -5.787412e-02 +4.062587e-03 +5.787412e-02
3.784759e+09 +4.585565e-03 +6.219513e-02 +9.954144e-01 -6.219513e-02 +9.954144e-01 -6.219513e-02 +4.585565e-03 +6.219513e-02
3.801894e+09 +4.668084e-03 +6.284941e-02 +9.953319e-01 -6.284941e-02 +9.953319e-01 -6.284941e-02 +4.668084e-03 +6.284941e-02
3.905259e+09 +5.179337e-03 +6.675795e-02 +9.948207e-01 -6.675795e-02 +9.948207e-01 -6.675795e-02 +5.179337e-03 +6.675795e-02
3.935501e+09 +5.333201e-03 +6.788946e-02 +9.946668e-01 -6.788946e-02 +9.946668e-01 -6.788946e-02 +5.333201e-03 +6.788946e-02
4.029597e+09 +5.824055e-03 +7.137716e-02 +9.941759e-01 -7.137716e-02 +9.941759e-01 -7.137716e-02 +5.824055e-03 +7.137716e-02
4.073803e+09 +6.060868e-03 +7.299906e-02 +9.939391e-01 -7.299906e-02 +9.939391e-01 -7.299906e-02 +6.060868e-03 +7.299906e-02
4.157892e+09 +6.522048e-03 +7.605632e-02 +9.934780e-01 -7.605632e-02 +9.934780e-01 -7.605632e-02 +6.522048e-03 +7.605632e-02
4.216965e+09 +6.854273e-03 +7.818296e-02 +9.931457e-01 -7.818296e-02 +9.931457e-01 -7.818296e-02 +6.854273e-03 +7.818296e-02
4.290273e+09 +7.275830e-03 +8.079895e-02 +9.927242e-01 -8.079895e-02 +9.927242e-01 -8.079895e-02 +7.275830e-03 +8.079895e-02
4.365158e+09 +7.716876e-03 +8.344587e-02 +9.922831e-01 -8.344587e-02 +9.922831e-01 -8.344587e-02 +7.716876e-03 +8.344587e-02
4.426868e+09 +8.088098e-03 +8.560857e-02 +9.919119e-01 -8.560857e-02 +9.919119e-01 -8.560857e-02 +8.088098e-03 +8.560857e-02
4.518559e+09 +8.652421e-03 +8.879245e-02 +9.913476e-01 -8.879245e-02 +9.913476e-01 -8.879245e-02 +8.652421e-03 +8.879245e-02
4.567812e+09 +8.961747e-03 +9.048863e-02 +9.910383e-01 -9.048863e-02 +9.910383e-01 -9.048863e-02 +8.961747e-03 +9.048863e-02
4.677351e+09 +9.664943e-03 +9.422729e-02 +9.903351e-01 -9.422729e-02 +9.903351e-01 -9.422729e-02 +9.664943e-03 +9.422729e-02
4.713244e+09 +9.899875e-03 +9.544256e-02 +9.901001e-01 -9.544256e-02 +9.901001e-01 -9.544256e-02 +9.899875e-03 +9.544256e-02
4.841724e+09 +1.075878e-02 +9.975494e-02 +9.892412e-01 -9.975494e-02 +9.892412e-01 -9.975494e-02 +1.075878e-02 +9.975494e-02
4.863306e+09 +1.090579e-02 +1.004737e-01 +9.890942e-01 -1.004737e-01 +9.890942e-01 -1.004737e-01 +1.090579e-02 +1.004737e-01
5.011872e+09 +1.193860e-02 +1.053798e-01 +9.880614e-01 -1.053798e-01 +9.880614e-01 -1.053798e-01 +1.193860e-02 +1.053798e-01
5.018146e+09 +1.198301e-02 +1.055854e-01 +9.880170e-01 -1.055854e-01 +9.880170e-01 -1.055854e-01 +1.198301e-02 +1.055854e-01
5.177915e+09 +1.313528e-02 +1.107810e-01 +9.868647e-01 -1.107810e-01 +9.868647e-01 -1.107810e-01 +1.313528e-02 +1.107810e-01
5.188000e+09 +1.320938e-02 +1.111064e-01 +9.867906e-01 -1.111064e-01 +9.867906e-01 -1.111064e-01 +1.320938e-02 +1.111064e-01
5.342771e+09 +1.436659e-02 +1.160635e-01 +9.856334e-01 -1.160635e-01 +9.856334e-01 -1.160635e-01 +1.436659e-02 +1.160635e-01
5.370318e+09 +1.457646e-02 +1.169387e-01 +9.854235e-01 -1.169387e-01 +9.854235e-01 -1.169387e-01 +1.457646e-02 +1.169387e-01
5.512877e+09 +1.568115e-02 +1.214360e-01 +9.843189e-01 -1.214360e-01 +9.843189e-01 -1.214360e-01 +1.568115e-02 +1.214360e-01
5.559043e+09 +1.604551e-02 +1.228811e-01 +9.839545e-01 -1.228811e-01 +9.839545e-01 -1.228811e-01 +1.604551e-02 +1.228811e-01
5.688397e+09 +1.708343e-02 +1.269016e-01 +9.829166e-01 -1.269016e-01 +9.829166e-01 -1.269016e-01 +1.708343e-02 +1.269016e-01
5.754399e+09 +1.762259e-02 +1.289374e-01 +9.823774e-01 -1.289374e-01 +9.823774e-01 -1.289374e-01 +1.762259e-02 +1.289374e-01
5.869507e+09 +1.857816e-02 +1.324632e-01 +9.814218e-01 -1.324632e-01 +9.814218e-01 -1.324632e-01 +1.857816e-02 +1.324632e-01
5.956621e+09 +1.931413e-02 +1.351114e-01 +9.806859e-01 -1.351114e-01 +9.806859e-01 -1.351114e-01 +1.931413e-02 +1.351114e-01
6.056382e+09 +2.017032e-02 +1.381234e-01 +9.798297e-01 -1.381234e-01 +9.798297e-01 -1.381234e-01 +2.017032e-02 +1.381234e-01
6.165950e+09 +2.112695e-02 +1.414068e-01 +9.788730e-01 -1.414068e-01 +9.788730e-01 -1.414068e-01 +2.112695e-02 +1.414068e-01
6.249208e+09 +2.186516e-02 +1.438849e-01 +9.781348e-01 -1.438849e-01 +9.781348e-01 -1.438849e-01 +2.186516e-02 +1.438849e-01
6.382635e+09 +2.306829e-02 +1.478268e-01 +9.769317e-01 -1.478268e-01 +9.769317e-01 -1.478268e-01 +2.306829e-02 +1.478268e-01
6.448172e+09 +2.366823e-02 +1.497501e-01 +9.763318e-01 -1.497501e-01 +9.763318e-01 -1.497501e-01 +2.366823e-02 +1.497501e-01
6.606934e+09 +2.514578e-02 +1.543747e-01 +9.748542e-01 -1.543747e-01 +9.748542e-01 -1.543747e-01 +2.514578e-02 +1.543747e-01
6.653471e+09 +2.558533e-02 +1.557213e-01 +9.744147e-01 -1.557213e-01 +9.744147e-01 -1.557213e-01 +2.558533e-02 +1.557213e-01
6.839116e+09 +2.736750e-02 +1.610533e-01 +9.726325e-01 -1.610533e-01 +9.726325e-01 -1.610533e-01 +2.736750e-02 +1.610533e-01
6.865307e+09 +2.762259e-02 +1.618005e-01 +9.723774e-01 -1.618005e-01 +9.723774e-01 -1.618005e-01 +2.762259e-02 +1.618005e-01
7.079458e+09 +2.974193e-02 +1.678650e-01 +9.702581e-01 -1.678650e-01 +9.702581e-01 -1.678650e-01 +2.974193e-02 +1.678650e-01
7.083887e+09 +2.978639e-02 +1.679896e-01 +9.702136e-01 -1.679896e-01 +9.702136e-01 -1.679896e-01 +2.978639e-02 +1.679896e-01
7.309426e+09 +3.208345e-02 +1.742901e-01 +9.679165e-01 -1.742901e-01 +9.679165e-01 -1.742901e-01 +3.208345e-02 +1.742901e-01
7.328245e+09 +3.227803e-02 +1.748120e-01 +9.677220e-01 -1.748120e-01 +9.677220e-01 -1.748120e-01 +3.227803e-02 +1.748120e-01
7.542147e+09 +3.452077e-02 +1.807034e-01 +9.654792e-01 -1.807034e-01 +9.654792e-01 -1.807034e-01 +3.452077e-02 +1.807034e-01
7.585776e+09 +3.498517e-02 +1.818961e-01 +9.650148e-01 -1.818961e-01 +9.650148e-01 -1.818961e-01 +3.498517e-02 +1.818961e-01
7.782276e+09 +3.710564e-02 +1.872305e-01 +9.628944e-01 -1.872305e-01 +9.628944e-01 -1.872305e-01 +3.710564e-02 +1.872305e-01
7.852356e+09 +3.787320e-02 +1.891185e-01 +9.621268e-01 -1.891185e-01 +9.621268e-01 -1.891185e-01 +3.787320e-02 +1.891185e-01
8.030051e+09 +3.984570e-02 +1.938721e-01 +9.601543e-01 -1.938721e-01 +9.601543e-01 -1.938721e-01 +3.984570e-02 +1.938721e-01
8.128305e+09 +4.095238e-02 +1.964801e-01 +9.590476e-01 -1.964801e-01 +9.590476e-01 -1.964801e-01 +4.095238e-02 +1.964801e-01
8.285715e+09 +4.274883e-02 +2.006284e-01 +9.572512e-01 -2.006284e-01 +9.572512e-01 -2.006284e-01 +4.274883e-02 +2.006284e-01
8.413951e+09 +4.423345e-02 +2.039811e-01 +9.557665e-01 -2.039811e-01 +9.557665e-01 -2.039811e-01 +4.423345e-02 +2.039811e-01
8.549518e+09 +4.582327e-02 +2.074995e-01 +9.541767e-01 -2.074995e-01 +9.541767e-01 -2.074995e-01 +4.582327e-02 +2.074995e-01
8.709636e+09 +4.772756e-02 +2.116212e-01 +9.522724e-01 -2.116212e-01 +9.522724e-01 -2.116212e-01 +4.772756e-02 +2.116212e-01
8.821721e+09 +4.907750e-02 +2.144848e-01 +9.509225e-01 -2.144848e-01 +9.509225e-01 -2.144848e-01 +4.907750e-02 +2.144848e-01
9.015711e+09 +5.144629e-02 +2.193993e-01 +9.485537e-01 -2.193993e-01 +9.485537e-01 -2.193993e-01 +5.144629e-02 +2.193993e-01
9.102590e+09 +5.252030e-02 +2.215833e-01 +9.474797e-01 -2.215833e-01 +9.474797e-01 -2.215833e-01 +5.252030e-02 +2.215833e-01
9.332543e+09 +5.540163e-02 +2.273137e-01 +9.445984e-01 -2.273137e-01 +9.445984e-01 -2.273137e-01 +5.540163e-02 +2.273137e-01
9.392402e+09 +5.616074e-02 +2.287935e-01 +9.438393e-01 -2.287935e-01 +9.438393e-01 -2.287935e-01 +5.616074e-02 +2.287935e-01
9.660509e+09 +5.960595e-02 +2.353620e-01 +9.403941e-01 -2.353620e-01 +9.403941e-01 -2.353620e-01 +5.960595e-02 +2.353620e-01
9.691440e+09 +6.000811e-02 +2.361135e-01 +9.399919e-01 -2.361135e-01 +9.399919e-01 -2.361135e-01 +6.000811e-02 +2.361135e-01
1.000000e+10 +6.407196e-02 +2.435407e-01 +9.359280e-01 -2.435407e-01 +9.359280e-01 -2.435407e-01 +6.407196e-02 +2.435407e-01
