! Touchstone 2-port S-parameters  (series-through model)
! Part: GRM188R71C104_100nF_GRAPHFIT
! Generated: 2026-06-14 19:51 UTC  by s2p tool
! Reference impedance: 50.0 Ohm
! ESL not derivable (no SRF, no case) -> default 0.5 nH [PHYSICS ESTIMATE, low confidence]
! ESR unknown -> default 10 mOhm [PHYSICS ESTIMATE, low confidence]
! Effective C from impedance curve: 101.129 nF (nominal 100.0 nF) [freq-domain derived, preferred over nominal]
! Z(f) vector-fit to digitized graph(s): 2 poles, rel. RMS error 0.75% [GRAPH FIT ***]
! SPICE = synthesized RLC ladder (1 branches, passive)
! ESTIMATED / behavioral model - NOT manufacturer-measured data.
# Hz S RI R 50
! freq        ReS11      ImS11      ReS21      ImS21      ReS12      ImS12      ReS22      ImS22
1.000000e+04 +7.183826e-01 -4.496783e-01 +2.816174e-01 +4.496783e-01 +2.816174e-01 +4.496783e-01 +7.183826e-01 -4.496783e-01
1.029201e+04 +7.062804e-01 -4.553551e-01 +2.937196e-01 +4.553551e-01 +2.937196e-01 +4.553551e-01 +7.062804e-01 -4.553551e-01
1.059254e+04 +6.938978e-01 -4.607621e-01 +3.061022e-01 +4.607621e-01 +3.061022e-01 +4.607621e-01 +6.938978e-01 -4.607621e-01
1.090184e+04 +6.812464e-01 -4.658820e-01 +3.187536e-01 +4.658820e-01 +3.187536e-01 +4.658820e-01 +6.812464e-01 -4.658820e-01
1.122018e+04 +6.683389e-01 -4.706978e-01 +3.316611e-01 +4.706978e-01 +3.316611e-01 +4.706978e-01 +6.683389e-01 -4.706978e-01
1.154782e+04 +6.551895e-01 -4.751933e-01 +3.448105e-01 +4.751933e-01 +3.448105e-01 +4.751933e-01 +6.551895e-01 -4.751933e-01
1.188502e+04 +6.418137e-01 -4.793530e-01 +3.581863e-01 +4.793530e-01 +3.581863e-01 +4.793530e-01 +6.418137e-01 -4.793530e-01
1.223207e+04 +6.282285e-01 -4.831623e-01 +3.717715e-01 +4.831623e-01 +3.717715e-01 +4.831623e-01 +6.282285e-01 -4.831623e-01
1.258925e+04 +6.144518e-01 -4.866077e-01 +3.855482e-01 +4.866077e-01 +3.855482e-01 +4.866077e-01 +6.144518e-01 -4.866077e-01
1.295687e+04 +6.005029e-01 -4.896767e-01 +3.994971e-01 +4.896767e-01 +3.994971e-01 +4.896767e-01 +6.005029e-01 -4.896767e-01
1.333521e+04 +5.864021e-01 -4.923582e-01 +4.135979e-01 +4.923582e-01 +4.135979e-01 +4.923582e-01 +5.864021e-01 -4.923582e-01
1.372461e+04 +5.721707e-01 -4.946424e-01 +4.278293e-01 +4.946424e-01 +4.278293e-01 +4.946424e-01 +5.721707e-01 -4.946424e-01
1.412538e+04 +5.578307e-01 -4.965210e-01 +4.421693e-01 +4.965210e-01 +4.421693e-01 +4.965210e-01 +5.578307e-01 -4.965210e-01
1.453784e+04 +5.434048e-01 -4.979871e-01 +4.565952e-01 +4.979871e-01 +4.565952e-01 +4.979871e-01 +5.434048e-01 -4.979871e-01
1.496236e+04 +5.289164e-01 -4.990358e-01 +4.710836e-01 +4.990358e-01 +4.710836e-01 +4.990358e-01 +5.289164e-01 -4.990358e-01
1.539927e+04 +5.143892e-01 -4.996634e-01 +4.856108e-01 +4.996634e-01 +4.856108e-01 +4.996634e-01 +5.143892e-01 -4.996634e-01
1.584893e+04 +4.998473e-01 -4.998682e-01 +5.001527e-01 +4.998682e-01 +5.001527e-01 +4.998682e-01 +4.998473e-01 -4.998682e-01
1.631173e+04 +4.853146e-01 -4.996501e-01 +5.146854e-01 +4.996501e-01 +5.146854e-01 +4.996501e-01 +4.853146e-01 -4.996501e-01
1.678804e+04 +4.708153e-01 -4.990108e-01 +5.291847e-01 +4.990108e-01 +5.291847e-01 +4.990108e-01 +4.708153e-01 -4.990108e-01
1.727826e+04 +4.563730e-01 -4.979537e-01 +5.436270e-01 +4.979537e-01 +5.436270e-01 +4.979537e-01 +4.563730e-01 -4.979537e-01
1.778279e+04 +4.420114e-01 -4.964838e-01 +5.579886e-01 +4.964838e-01 +5.579886e-01 +4.964838e-01 +4.420114e-01 -4.964838e-01
1.830206e+04 +4.277531e-01 -4.946079e-01 +5.722469e-01 +4.946079e-01 +5.722469e-01 +4.946079e-01 +4.277531e-01 -4.946079e-01
1.883649e+04 +4.136206e-01 -4.923341e-01 +5.863794e-01 +4.923341e-01 +5.863794e-01 +4.923341e-01 +4.136206e-01 -4.923341e-01
1.938653e+04 +3.996351e-01 -4.896722e-01 +6.003649e-01 +4.896722e-01 +6.003649e-01 +4.896722e-01 +3.996351e-01 -4.896722e-01
1.995262e+04 +3.858172e-01 -4.866333e-01 +6.141828e-01 +4.866333e-01 +6.141828e-01 +4.866333e-01 +3.858172e-01 -4.866333e-01
2.053525e+04 +3.721864e-01 -4.832299e-01 +6.278136e-01 +4.832299e-01 +6.278136e-01 +4.832299e-01 +3.721864e-01 -4.832299e-01
2.113489e+04 +3.587610e-01 -4.794756e-01 +6.412390e-01 +4.794756e-01 +6.412390e-01 +4.794756e-01 +3.587610e-01 -4.794756e-01
2.175204e+04 +3.455581e-01 -4.753849e-01 +6.544419e-01 +4.753849e-01 +6.544419e-01 +4.753849e-01 +3.455581e-01 -4.753849e-01
2.238721e+04 +3.325935e-01 -4.709735e-01 +6.674065e-01 +4.709735e-01 +6.674065e-01 +4.709735e-01 +3.325935e-01 -4.709735e-01
2.304093e+04 +3.198818e-01 -4.662577e-01 +6.801182e-01 +4.662577e-01 +6.801182e-01 +4.662577e-01 +3.198818e-01 -4.662577e-01
2.371374e+04 +3.074359e-01 -4.612547e-01 +6.925641e-01 +4.612547e-01 +6.925641e-01 +4.612547e-01 +3.074359e-01 -4.612547e-01
2.440619e+04 +2.952677e-01 -4.559819e-01 +7.047323e-01 +4.559819e-01 +7.047323e-01 +4.559819e-01 +2.952677e-01 -4.559819e-01
2.511886e+04 +2.833874e-01 -4.504573e-01 +7.166126e-01 +4.504573e-01 +7.166126e-01 +4.504573e-01 +2.833874e-01 -4.504573e-01
2.585235e+04 +2.718039e-01 -4.446993e-01 +7.281961e-01 +4.446993e-01 +7.281961e-01 +4.446993e-01 +2.718039e-01 -4.446993e-01
2.660725e+04 +2.605247e-01 -4.387261e-01 +7.394753e-01 +4.387261e-01 +7.394753e-01 +4.387261e-01 +2.605247e-01 -4.387261e-01
2.738420e+04 +2.495558e-01 -4.325562e-01 +7.504442e-01 +4.325562e-01 +7.504442e-01 +4.325562e-01 +2.495558e-01 -4.325562e-01
2.818383e+04 +2.389021e-01 -4.262080e-01 +7.610979e-01 +4.262080e-01 +7.610979e-01 +4.262080e-01 +2.389021e-01 -4.262080e-01
2.900681e+04 +2.285670e-01 -4.196997e-01 +7.714330e-01 +4.196997e-01 +7.714330e-01 +4.196997e-01 +2.285670e-01 -4.196997e-01
2.985383e+04 +2.185529e-01 -4.130491e-01 +7.814471e-01 +4.130491e-01 +7.814471e-01 +4.130491e-01 +2.185529e-01 -4.130491e-01
3.072557e+04 +2.088608e-01 -4.062737e-01 +7.911392e-01 +4.062737e-01 +7.911392e-01 +4.062737e-01 +2.088608e-01 -4.062737e-01
3.162278e+04 +1.994906e-01 -3.993908e-01 +8.005094e-01 +3.993908e-01 +8.005094e-01 +3.993908e-01 +1.994906e-01 -3.993908e-01
3.254618e+04 +1.904415e-01 -3.924167e-01 +8.095585e-01 +3.924167e-01 +8.095585e-01 +3.924167e-01 +1.904415e-01 -3.924167e-01
3.349654e+04 +1.817114e-01 -3.853677e-01 +8.182886e-01 +3.853677e-01 +8.182886e-01 +3.853677e-01 +1.817114e-01 -3.853677e-01
3.447466e+04 +1.732974e-01 -3.782590e-01 +8.267026e-01 +3.782590e-01 +8.267026e-01 +3.782590e-01 +1.732974e-01 -3.782590e-01
3.548134e+04 +1.651958e-01 -3.711055e-01 +8.348042e-01 +3.711055e-01 +8.348042e-01 +3.711055e-01 +1.651958e-01 -3.711055e-01
3.651741e+04 +1.574023e-01 -3.639212e-01 +8.425977e-01 +3.639212e-01 +8.425977e-01 +3.639212e-01 +1.574023e-01 -3.639212e-01
3.758374e+04 +1.499117e-01 -3.567194e-01 +8.500883e-01 +3.567194e-01 +8.500883e-01 +3.567194e-01 +1.499117e-01 -3.567194e-01
3.868121e+04 +1.427185e-01 -3.495129e-01 +8.572815e-01 +3.495129e-01 +8.572815e-01 +3.495129e-01 +1.427185e-01 -3.495129e-01
3.981072e+04 +1.358165e-01 -3.423136e-01 +8.641835e-01 +3.423136e-01 +8.641835e-01 +3.423136e-01 +1.358165e-01 -3.423136e-01
4.097321e+04 +1.291991e-01 -3.351325e-01 +8.708009e-01 +3.351325e-01 +8.708009e-01 +3.351325e-01 +1.291991e-01 -3.351325e-01
4.216965e+04 +1.228593e-01 -3.279801e-01 +8.771407e-01 +3.279801e-01 +8.771407e-01 +3.279801e-01 +1.228593e-01 -3.279801e-01
4.340103e+04 +1.167900e-01 -3.208662e-01 +8.832100e-01 +3.208662e-01 +8.832100e-01 +3.208662e-01 +1.167900e-01 -3.208662e-01
4.466836e+04 +1.109836e-01 -3.137997e-01 +8.890164e-01 +3.137997e-01 +8.890164e-01 +3.137997e-01 +1.109836e-01 -3.137997e-01
4.597270e+04 +1.054323e-01 -3.067889e-01 +8.945677e-01 +3.067889e-01 +8.945677e-01 +3.067889e-01 +1.054323e-01 -3.067889e-01
4.731513e+04 +1.001283e-01 -2.998414e-01 +8.998717e-01 +2.998414e-01 +8.998717e-01 +2.998414e-01 +1.001283e-01 -2.998414e-01
4.869675e+04 +9.506369e-02 -2.929641e-01 +9.049363e-01 +2.929641e-01 +9.049363e-01 +2.929641e-01 +9.506369e-02 -2.929641e-01
5.011872e+04 +9.023042e-02 -2.861633e-01 +9.097696e-01 +2.861633e-01 +9.097696e-01 +2.861633e-01 +9.023042e-02 -2.861633e-01
5.158222e+04 +8.562046e-02 -2.794448e-01 +9.143795e-01 +2.794448e-01 +9.143795e-01 +2.794448e-01 +8.562046e-02 -2.794448e-01
5.308844e+04 +8.122582e-02 -2.728136e-01 +9.187742e-01 +2.728136e-01 +9.187742e-01 +2.728136e-01 +8.122582e-02 -2.728136e-01
5.463865e+04 +7.703852e-02 -2.662742e-01 +9.229615e-01 +2.662742e-01 +9.229615e-01 +2.662742e-01 +7.703852e-02 -2.662742e-01
5.623413e+04 +7.305069e-02 -2.598307e-01 +9.269493e-01 +2.598307e-01 +9.269493e-01 +2.598307e-01 +7.305069e-02 -2.598307e-01
5.787620e+04 +6.925456e-02 -2.534865e-01 +9.307454e-01 +2.534865e-01 +9.307454e-01 +2.534865e-01 +6.925456e-02 -2.534865e-01
5.956621e+04 +6.564247e-02 -2.472448e-01 +9.343575e-01 +2.472448e-01 +9.343575e-01 +2.472448e-01 +6.564247e-02 -2.472448e-01
6.130558e+04 +6.220691e-02 -2.411080e-01 +9.377931e-01 +2.411080e-01 +9.377931e-01 +2.411080e-01 +6.220691e-02 -2.411080e-01
6.309573e+04 +5.894053e-02 -2.350784e-01 +9.410595e-01 +2.350784e-01 +9.410595e-01 +2.350784e-01 +5.894053e-02 -2.350784e-01
6.493816e+04 +5.583617e-02 -2.291578e-01 +9.441638e-01 +2.291578e-01 +9.441638e-01 +2.291578e-01 +5.583617e-02 -2.291578e-01
6.683439e+04 +5.288682e-02 -2.233475e-01 +9.471132e-01 +2.233475e-01 +9.471132e-01 +2.233475e-01 +5.288682e-02 -2.233475e-01
6.878599e+04 +5.008569e-02 -2.176487e-01 +9.499143e-01 +2.176487e-01 +9.499143e-01 +2.176487e-01 +5.008569e-02 -2.176487e-01
7.079458e+04 +4.742618e-02 -2.120621e-01 +9.525738e-01 +2.120621e-01 +9.525738e-01 +2.120621e-01 +4.742618e-02 -2.120621e-01
7.286182e+04 +4.490189e-02 -2.065882e-01 +9.550981e-01 +2.065882e-01 +9.550981e-01 +2.065882e-01 +4.490189e-02 -2.065882e-01
7.498942e+04 +4.250664e-02 -2.012272e-01 +9.574934e-01 +2.012272e-01 +9.574934e-01 +2.012272e-01 +4.250664e-02 -2.012272e-01
7.717915e+04 +4.023445e-02 -1.959791e-01 +9.597655e-01 +1.959791e-01 +9.597655e-01 +1.959791e-01 +4.023445e-02 -1.959791e-01
7.943282e+04 +3.807956e-02 -1.908437e-01 +9.619204e-01 +1.908437e-01 +9.619204e-01 +1.908437e-01 +3.807956e-02 -1.908437e-01
8.175230e+04 +3.603641e-02 -1.858205e-01 +9.639636e-01 +1.858205e-01 +9.639636e-01 +1.858205e-01 +3.603641e-02 -1.858205e-01
8.413951e+04 +3.409966e-02 -1.809089e-01 +9.659003e-01 +1.809089e-01 +9.659003e-01 +1.809089e-01 +3.409966e-02 -1.809089e-01
8.659643e+04 +3.226418e-02 -1.761080e-01 +9.677358e-01 +1.761080e-01 +9.677358e-01 +1.761080e-01 +3.226418e-02 -1.761080e-01
8.912509e+04 +3.052503e-02 -1.714170e-01 +9.694750e-01 +1.714170e-01 +9.694750e-01 +1.714170e-01 +3.052503e-02 -1.714170e-01
9.172759e+04 +2.887749e-02 -1.668348e-01 +9.711225e-01 +1.668348e-01 +9.711225e-01 +1.668348e-01 +2.887749e-02 -1.668348e-01
9.440609e+04 +2.731701e-02 -1.623601e-01 +9.726830e-01 +1.623601e-01 +9.726830e-01 +1.623601e-01 +2.731701e-02 -1.623601e-01
9.716280e+04 +2.583927e-02 -1.579916e-01 +9.741607e-01 +1.579916e-01 +9.741607e-01 +1.579916e-01 +2.583927e-02 -1.579916e-01
1.000000e+05 +2.444012e-02 -1.537281e-01 +9.755599e-01 +1.537281e-01 +9.755599e-01 +1.537281e-01 +2.444012e-02 -1.537281e-01
1.029201e+05 +2.311557e-02 -1.495679e-01 +9.768844e-01 +1.495679e-01 +9.768844e-01 +1.495679e-01 +2.311557e-02 -1.495679e-01
1.059254e+05 +2.186186e-02 -1.455095e-01 +9.781381e-01 +1.455095e-01 +9.781381e-01 +1.455095e-01 +2.186186e-02 -1.455095e-01
1.090184e+05 +2.067535e-02 -1.415513e-01 +9.793247e-01 +1.415513e-01 +9.793247e-01 +1.415513e-01 +2.067535e-02 -1.415513e-01
1.122018e+05 +1.955260e-02 -1.376917e-01 +9.804474e-01 +1.376917e-01 +9.804474e-01 +1.376917e-01 +1.955260e-02 -1.376917e-01
1.154782e+05 +1.849031e-02 -1.339289e-01 +9.815097e-01 +1.339289e-01 +9.815097e-01 +1.339289e-01 +1.849031e-02 -1.339289e-01
1.188502e+05 +1.748536e-02 -1.302612e-01 +9.825146e-01 +1.302612e-01 +9.825146e-01 +1.302612e-01 +1.748536e-02 -1.302612e-01
1.223207e+05 +1.653475e-02 -1.266868e-01 +9.834652e-01 +1.266868e-01 +9.834652e-01 +1.266868e-01 +1.653475e-02 -1.266868e-01
1.258925e+05 +1.563565e-02 -1.232040e-01 +9.843644e-01 +1.232040e-01 +9.843644e-01 +1.232040e-01 +1.563565e-02 -1.232040e-01
1.295687e+05 +1.478535e-02 -1.198109e-01 +9.852147e-01 +1.198109e-01 +9.852147e-01 +1.198109e-01 +1.478535e-02 -1.198109e-01
1.333521e+05 +1.398128e-02 -1.165056e-01 +9.860187e-01 +1.165056e-01 +9.860187e-01 +1.165056e-01 +1.398128e-02 -1.165056e-01
1.372461e+05 +1.322100e-02 -1.132865e-01 +9.867790e-01 +1.132865e-01 +9.867790e-01 +1.132865e-01 +1.322100e-02 -1.132865e-01
1.412538e+05 +1.250218e-02 -1.101517e-01 +9.874978e-01 +1.101517e-01 +9.874978e-01 +1.101517e-01 +1.250218e-02 -1.101517e-01
1.453784e+05 +1.182262e-02 -1.070992e-01 +9.881774e-01 +1.070992e-01 +9.881774e-01 +1.070992e-01 +1.182262e-02 -1.070992e-01
1.496236e+05 +1.118022e-02 -1.041274e-01 +9.888198e-01 +1.041274e-01 +9.888198e-01 +1.041274e-01 +1.118022e-02 -1.041274e-01
1.539927e+05 +1.057301e-02 -1.012344e-01 +9.894270e-01 +1.012344e-01 +9.894270e-01 +1.012344e-01 +1.057301e-02 -1.012344e-01
1.584893e+05 +9.999077e-03 -9.841843e-02 +9.900009e-01 +9.841843e-02 +9.900009e-01 +9.841843e-02 +9.999077e-03 -9.841843e-02
1.631173e+05 +9.456649e-03 -9.567769e-02 +9.905434e-01 +9.567769e-02 +9.905434e-01 +9.567769e-02 +9.456649e-03 -9.567769e-02
1.678804e+05 +8.944024e-03 -9.301044e-02 +9.910560e-01 +9.301044e-02 +9.910560e-01 +9.301044e-02 +8.944024e-03 -9.301044e-02
1.727826e+05 +8.459592e-03 -9.041493e-02 +9.915404e-01 +9.041493e-02 +9.915404e-01 +9.041493e-02 +8.459592e-03 -9.041493e-02
1.778279e+05 +8.001830e-03 -8.788945e-02 +9.919982e-01 +8.788945e-02 +9.919982e-01 +8.788945e-02 +8.001830e-03 -8.788945e-02
1.830206e+05 +7.569290e-03 -8.543231e-02 +9.924307e-01 +8.543231e-02 +9.924307e-01 +8.543231e-02 +7.569290e-03 -8.543231e-02
1.883649e+05 +7.160604e-03 -8.304182e-02 +9.928394e-01 +8.304182e-02 +9.928394e-01 +8.304182e-02 +7.160604e-03 -8.304182e-02
1.938653e+05 +6.774474e-03 -8.071635e-02 +9.932255e-01 +8.071635e-02 +9.932255e-01 +8.071635e-02 +6.774474e-03 -8.071635e-02
1.995262e+05 +6.409670e-03 -7.845428e-02 +9.935903e-01 +7.845428e-02 +9.935903e-01 +7.845428e-02 +6.409670e-03 -7.845428e-02
2.053525e+05 +6.065030e-03 -7.625402e-02 +9.939350e-01 +7.625402e-02 +9.939350e-01 +7.625402e-02 +6.065030e-03 -7.625402e-02
2.113489e+05 +5.739452e-03 -7.411401e-02 +9.942605e-01 +7.411401e-02 +9.942605e-01 +7.411401e-02 +5.739452e-03 -7.411401e-02
2.175204e+05 +5.431893e-03 -7.203271e-02 +9.945681e-01 +7.203271e-02 +9.945681e-01 +7.203271e-02 +5.431893e-03 -7.203271e-02
2.238721e+05 +5.141366e-03 -7.000862e-02 +9.948586e-01 +7.000862e-02 +9.948586e-01 +7.000862e-02 +5.141366e-03 -7.000862e-02
2.304093e+05 +4.866936e-03 -6.804026e-02 +9.951331e-01 +6.804026e-02 +9.951331e-01 +6.804026e-02 +4.866936e-03 -6.804026e-02
2.371374e+05 +4.607720e-03 -6.612619e-02 +9.953923e-01 +6.612619e-02 +9.953923e-01 +6.612619e-02 +4.607720e-03 -6.612619e-02
2.440619e+05 +4.362882e-03 -6.426500e-02 +9.956371e-01 +6.426500e-02 +9.956371e-01 +6.426500e-02 +4.362882e-03 -6.426500e-02
2.511886e+05 +4.131631e-03 -6.245530e-02 +9.958684e-01 +6.245530e-02 +9.958684e-01 +6.245530e-02 +4.131631e-03 -6.245530e-02
2.585235e+05 +3.913218e-03 -6.069573e-02 +9.960868e-01 +6.069573e-02 +9.960868e-01 +6.069573e-02 +3.913218e-03 -6.069573e-02
2.660725e+05 +3.706935e-03 -5.898497e-02 +9.962931e-01 +5.898497e-02 +9.962931e-01 +5.898497e-02 +3.706935e-03 -5.898497e-02
2.738420e+05 +3.512115e-03 -5.732172e-02 +9.964879e-01 +5.732172e-02 +9.964879e-01 +5.732172e-02 +3.512115e-03 -5.732172e-02
2.818383e+05 +3.328123e-03 -5.570472e-02 +9.966719e-01 +5.570472e-02 +9.966719e-01 +5.570472e-02 +3.328123e-03 -5.570472e-02
2.900681e+05 +3.154362e-03 -5.413273e-02 +9.968456e-01 +5.413273e-02 +9.968456e-01 +5.413273e-02 +3.154362e-03 -5.413273e-02
2.985383e+05 +2.990267e-03 -5.260453e-02 +9.970097e-01 +5.260453e-02 +9.970097e-01 +5.260453e-02 +2.990267e-03 -5.260453e-02
3.072557e+05 +2.835301e-03 -5.111896e-02 +9.971647e-01 +5.111896e-02 +9.971647e-01 +5.111896e-02 +2.835301e-03 -5.111896e-02
3.162278e+05 +2.688960e-03 -4.967486e-02 +9.973110e-01 +4.967486e-02 +9.973110e-01 +4.967486e-02 +2.688960e-03 -4.967486e-02
3.254618e+05 +2.550767e-03 -4.827110e-02 +9.974492e-01 +4.827110e-02 +9.974492e-01 +4.827110e-02 +2.550767e-03 -4.827110e-02
3.349654e+05 +2.420269e-03 -4.690658e-02 +9.975797e-01 +4.690658e-02 +9.975797e-01 +4.690658e-02 +2.420269e-03 -4.690658e-02
3.447466e+05 +2.297040e-03 -4.558025e-02 +9.977030e-01 +4.558025e-02 +9.977030e-01 +4.558025e-02 +2.297040e-03 -4.558025e-02
3.548134e+05 +2.180677e-03 -4.429105e-02 +9.978193e-01 +4.429105e-02 +9.978193e-01 +4.429105e-02 +2.180677e-03 -4.429105e-02
3.651741e+05 +2.070798e-03 -4.303798e-02 +9.979292e-01 +4.303798e-02 +9.979292e-01 +4.303798e-02 +2.070798e-03 -4.303798e-02
3.758374e+05 +1.967044e-03 -4.182003e-02 +9.980330e-01 +4.182003e-02 +9.980330e-01 +4.182003e-02 +1.967044e-03 -4.182003e-02
3.868121e+05 +1.869074e-03 -4.063625e-02 +9.981309e-01 +4.063625e-02 +9.981309e-01 +4.063625e-02 +1.869074e-03 -4.063625e-02
3.981072e+05 +1.776568e-03 -3.948569e-02 +9.982234e-01 +3.948569e-02 +9.982234e-01 +3.948569e-02 +1.776568e-03 -3.948569e-02
4.097321e+05 +1.689220e-03 -3.836743e-02 +9.983108e-01 +3.836743e-02 +9.983108e-01 +3.836743e-02 +1.689220e-03 -3.836743e-02
4.216965e+05 +1.606745e-03 -3.728059e-02 +9.983933e-01 +3.728059e-02 +9.983933e-01 +3.728059e-02 +1.606745e-03 -3.728059e-02
4.340103e+05 +1.528870e-03 -3.622429e-02 +9.984711e-01 +3.622429e-02 +9.984711e-01 +3.622429e-02 +1.528870e-03 -3.622429e-02
4.466836e+05 +1.455341e-03 -3.519769e-02 +9.985447e-01 +3.519769e-02 +9.985447e-01 +3.519769e-02 +1.455341e-03 -3.519769e-02
4.597270e+05 +1.385916e-03 -3.419996e-02 +9.986141e-01 +3.419996e-02 +9.986141e-01 +3.419996e-02 +1.385916e-03 -3.419996e-02
4.731513e+05 +1.320365e-03 -3.323030e-02 +9.986796e-01 +3.323030e-02 +9.986796e-01 +3.323030e-02 +1.320365e-03 -3.323030e-02
4.869675e+05 +1.258473e-03 -3.228793e-02 +9.987415e-01 +3.228793e-02 +9.987415e-01 +3.228793e-02 +1.258473e-03 -3.228793e-02
5.011872e+05 +1.200037e-03 -3.137208e-02 +9.988000e-01 +3.137208e-02 +9.988000e-01 +3.137208e-02 +1.200037e-03 -3.137208e-02
5.158222e+05 +1.144863e-03 -3.048202e-02 +9.988551e-01 +3.048202e-02 +9.988551e-01 +3.048202e-02 +1.144863e-03 -3.048202e-02
5.308844e+05 +1.092770e-03 -2.961703e-02 +9.989072e-01 +2.961703e-02 +9.989072e-01 +2.961703e-02 +1.092770e-03 -2.961703e-02
5.463865e+05 +1.043586e-03 -2.877640e-02 +9.989564e-01 +2.877640e-02 +9.989564e-01 +2.877640e-02 +1.043586e-03 -2.877640e-02
5.623413e+05 +9.971489e-04 -2.795946e-02 +9.990029e-01 +2.795946e-02 +9.990029e-01 +2.795946e-02 +9.971489e-04 -2.795946e-02
5.787620e+05 +9.533057e-04 -2.716554e-02 +9.990467e-01 +2.716554e-02 +9.990467e-01 +2.716554e-02 +9.533057e-04 -2.716554e-02
5.956621e+05 +9.119115e-04 -2.639398e-02 +9.990881e-01 +2.639398e-02 +9.990881e-01 +2.639398e-02 +9.119115e-04 -2.639398e-02
6.130558e+05 +8.728298e-04 -2.564418e-02 +9.991272e-01 +2.564418e-02 +9.991272e-01 +2.564418e-02 +8.728298e-04 -2.564418e-02
6.309573e+05 +8.359315e-04 -2.491550e-02 +9.991641e-01 +2.491550e-02 +9.991641e-01 +2.491550e-02 +8.359315e-04 -2.491550e-02
6.493816e+05 +8.010947e-04 -2.420737e-02 +9.991989e-01 +2.420737e-02 +9.991989e-01 +2.420737e-02 +8.010947e-04 -2.420737e-02
6.683439e+05 +7.682046e-04 -2.351920e-02 +9.992318e-01 +2.351920e-02 +9.992318e-01 +2.351920e-02 +7.682046e-04 -2.351920e-02
6.878599e+05 +7.371523e-04 -2.285043e-02 +9.992628e-01 +2.285043e-02 +9.992628e-01 +2.285043e-02 +7.371523e-04 -2.285043e-02
7.079458e+05 +7.078353e-04 -2.220050e-02 +9.992922e-01 +2.220050e-02 +9.992922e-01 +2.220050e-02 +7.078353e-04 -2.220050e-02
7.286182e+05 +6.801567e-04 -2.156890e-02 +9.993198e-01 +2.156890e-02 +9.993198e-01 +2.156890e-02 +6.801567e-04 -2.156890e-02
7.498942e+05 +6.540251e-04 -2.095510e-02 +9.993460e-01 +2.095510e-02 +9.993460e-01 +2.095510e-02 +6.540251e-04 -2.095510e-02
7.717915e+05 +6.293540e-04 -2.035861e-02 +9.993706e-01 +2.035861e-02 +9.993706e-01 +2.035861e-02 +6.293540e-04 -2.035861e-02
7.943282e+05 +6.060619e-04 -1.977892e-02 +9.993939e-01 +1.977892e-02 +9.993939e-01 +1.977892e-02 +6.060619e-04 -1.977892e-02
8.175230e+05 +5.840718e-04 -1.921556e-02 +9.994159e-01 +1.921556e-02 +9.994159e-01 +1.921556e-02 +5.840718e-04 -1.921556e-02
8.413951e+05 +5.633109e-04 -1.866808e-02 +9.994367e-01 +1.866808e-02 +9.994367e-01 +1.866808e-02 +5.633109e-04 -1.866808e-02
8.659643e+05 +5.437106e-04 -1.813603e-02 +9.994563e-01 +1.813603e-02 +9.994563e-01 +1.813603e-02 +5.437106e-04 -1.813603e-02
8.912509e+05 +5.252060e-04 -1.761895e-02 +9.994748e-01 +1.761895e-02 +9.994748e-01 +1.761895e-02 +5.252060e-04 -1.761895e-02
9.172759e+05 +5.077359e-04 -1.711644e-02 +9.994923e-01 +1.711644e-02 +9.994923e-01 +1.711644e-02 +5.077359e-04 -1.711644e-02
9.440609e+05 +4.912426e-04 -1.662808e-02 +9.995088e-01 +1.662808e-02 +9.995088e-01 +1.662808e-02 +4.912426e-04 -1.662808e-02
9.716280e+05 +4.756714e-04 -1.615346e-02 +9.995243e-01 +1.615346e-02 +9.995243e-01 +1.615346e-02 +4.756714e-04 -1.615346e-02
1.000000e+06 +4.609709e-04 -1.569219e-02 +9.995390e-01 +1.569219e-02 +9.995390e-01 +1.569219e-02 +4.609709e-04 -1.569219e-02
1.029201e+06 +4.470923e-04 -1.524390e-02 +9.995529e-01 +1.524390e-02 +9.995529e-01 +1.524390e-02 +4.470923e-04 -1.524390e-02
1.059254e+06 +4.339897e-04 -1.480822e-02 +9.995660e-01 +1.480822e-02 +9.995660e-01 +1.480822e-02 +4.339897e-04 -1.480822e-02
1.090184e+06 +4.216198e-04 -1.438478e-02 +9.995784e-01 +1.438478e-02 +9.995784e-01 +1.438478e-02 +4.216198e-04 -1.438478e-02
1.122018e+06 +4.099416e-04 -1.397324e-02 +9.995901e-01 +1.397324e-02 +9.995901e-01 +1.397324e-02 +4.099416e-04 -1.397324e-02
1.154782e+06 +3.989165e-04 -1.357326e-02 +9.996011e-01 +1.357326e-02 +9.996011e-01 +1.357326e-02 +3.989165e-04 -1.357326e-02
1.188502e+06 +3.885078e-04 -1.318451e-02 +9.996115e-01 +1.318451e-02 +9.996115e-01 +1.318451e-02 +3.885078e-04 -1.318451e-02
1.223207e+06 +3.786813e-04 -1.280666e-02 +9.996213e-01 +1.280666e-02 +9.996213e-01 +1.280666e-02 +3.786813e-04 -1.280666e-02
1.258925e+06 +3.694043e-04 -1.243941e-02 +9.996306e-01 +1.243941e-02 +9.996306e-01 +1.243941e-02 +3.694043e-04 -1.243941e-02
1.295687e+06 +3.606462e-04 -1.208246e-02 +9.996394e-01 +1.208246e-02 +9.996394e-01 +1.208246e-02 +3.606462e-04 -1.208246e-02
1.333521e+06 +3.523778e-04 -1.173550e-02 +9.996476e-01 +1.173550e-02 +9.996476e-01 +1.173550e-02 +3.523778e-04 -1.173550e-02
1.372461e+06 +3.445719e-04 -1.139825e-02 +9.996554e-01 +1.139825e-02 +9.996554e-01 +1.139825e-02 +3.445719e-04 -1.139825e-02
1.412538e+06 +3.372026e-04 -1.107044e-02 +9.996628e-01 +1.107044e-02 +9.996628e-01 +1.107044e-02 +3.372026e-04 -1.107044e-02
1.453784e+06 +3.302455e-04 -1.075179e-02 +9.996698e-01 +1.075179e-02 +9.996698e-01 +1.075179e-02 +3.302455e-04 -1.075179e-02
1.496236e+06 +3.236775e-04 -1.044204e-02 +9.996763e-01 +1.044204e-02 +9.996763e-01 +1.044204e-02 +3.236775e-04 -1.044204e-02
1.539927e+06 +3.174768e-04 -1.014093e-02 +9.996825e-01 +1.014093e-02 +9.996825e-01 +1.014093e-02 +3.174768e-04 -1.014093e-02
1.584893e+06 +3.116230e-04 -9.848215e-03 +9.996884e-01 +9.848215e-03 +9.996884e-01 +9.848215e-03 +3.116230e-04 -9.848215e-03
1.631173e+06 +3.060967e-04 -9.563654e-03 +9.996939e-01 +9.563654e-03 +9.996939e-01 +9.563654e-03 +3.060967e-04 -9.563654e-03
1.661695e+06 +3.027019e-04 -9.384572e-03 +9.996973e-01 +9.384572e-03 +9.996973e-01 +9.384572e-03 +3.027019e-04 -9.384572e-03
1.678804e+06 +3.008795e-04 -9.287010e-03 +9.996991e-01 +9.287010e-03 +9.996991e-01 +9.287010e-03 +3.008795e-04 -9.287010e-03
1.727262e+06 +2.960084e-04 -9.021065e-03 +9.997040e-01 +9.021065e-03 +9.997040e-01 +9.021065e-03 +2.960084e-04 -9.021065e-03
1.727826e+06 +2.959541e-04 -9.018055e-03 +9.997040e-01 +9.018055e-03 +9.997040e-01 +9.018055e-03 +2.959541e-04 -9.018055e-03
1.778279e+06 +2.913043e-04 -8.756566e-03 +9.997087e-01 +8.756566e-03 +9.997087e-01 +8.756566e-03 +2.913043e-04 -8.756566e-03
1.795415e+06 +2.898135e-04 -8.671062e-03 +9.997102e-01 +8.671062e-03 +9.997102e-01 +8.671062e-03 +2.898135e-04 -8.671062e-03
1.830206e+06 +2.869146e-04 -8.502327e-03 +9.997131e-01 +8.502327e-03 +9.997131e-01 +8.502327e-03 +2.869146e-04 -8.502327e-03
1.866257e+06 +2.840801e-04 -8.334038e-03 +9.997159e-01 +8.334038e-03 +9.997159e-01 +8.334038e-03 +2.840801e-04 -8.334038e-03
1.883649e+06 +2.827705e-04 -8.255127e-03 +9.997172e-01 +8.255127e-03 +9.997172e-01 +8.255127e-03 +2.827705e-04 -8.255127e-03
1.938653e+06 +2.788583e-04 -8.014764e-03 +9.997211e-01 +8.014764e-03 +9.997211e-01 +8.014764e-03 +2.788583e-04 -8.014764e-03
1.939895e+06 +2.787737e-04 -8.009489e-03 +9.997212e-01 +8.009489e-03 +9.997212e-01 +8.009489e-03 +2.787737e-04 -8.009489e-03
1.995262e+06 +2.751650e-04 -7.781036e-03 +9.997248e-01 +7.781036e-03 +9.997248e-01 +7.781036e-03 +2.751650e-04 -7.781036e-03
2.016439e+06 +2.738627e-04 -7.696930e-03 +9.997261e-01 +7.696930e-03 +9.997261e-01 +7.696930e-03 +2.738627e-04 -7.696930e-03
2.053525e+06 +2.716783e-04 -7.553752e-03 +9.997283e-01 +7.553752e-03 +9.997283e-01 +7.553752e-03 +2.716783e-04 -7.553752e-03
2.096002e+06 +2.693175e-04 -7.395895e-03 +9.997307e-01 +7.395895e-03 +9.997307e-01 +7.395895e-03 +2.693175e-04 -7.395895e-03
2.113489e+06 +2.683867e-04 -7.332723e-03 +9.997316e-01 +7.332723e-03 +9.997316e-01 +7.332723e-03 +2.683867e-04 -7.332723e-03
2.175204e+06 +2.652793e-04 -7.117766e-03 +9.997347e-01 +7.117766e-03 +9.997347e-01 +7.117766e-03 +2.652793e-04 -7.117766e-03
2.178705e+06 +2.651109e-04 -7.105931e-03 +9.997349e-01 +7.105931e-03 +9.997349e-01 +7.105931e-03 +2.651109e-04 -7.105931e-03
2.238721e+06 +2.623459e-04 -6.908704e-03 +9.997377e-01 +6.908704e-03 +9.997377e-01 +6.908704e-03 +2.623459e-04 -6.908704e-03
2.264671e+06 +2.612178e-04 -6.826607e-03 +9.997388e-01 +6.826607e-03 +9.997388e-01 +6.826607e-03 +2.612178e-04 -6.826607e-03
2.304093e+06 +2.595766e-04 -6.705363e-03 +9.997404e-01 +6.705363e-03 +9.997404e-01 +6.705363e-03 +2.595766e-04 -6.705363e-03
2.354029e+06 +2.576149e-04 -6.557503e-03 +9.997424e-01 +6.557503e-03 +9.997424e-01 +6.557503e-03 +2.576149e-04 -6.557503e-03
2.371374e+06 +2.569623e-04 -6.507575e-03 +9.997430e-01 +6.507575e-03 +9.997430e-01 +6.507575e-03 +2.569623e-04 -6.507575e-03
2.440619e+06 +2.544944e-04 -6.315177e-03 +9.997455e-01 +6.315177e-03 +9.997455e-01 +6.315177e-03 +2.544944e-04 -6.315177e-03
2.446913e+06 +2.542804e-04 -6.298217e-03 +9.997457e-01 +6.298217e-03 +9.997457e-01 +6.298217e-03 +2.542804e-04 -6.298217e-03
2.511886e+06 +2.521647e-04 -6.128009e-03 +9.997478e-01 +6.128009e-03 +9.997478e-01 +6.128009e-03 +2.521647e-04 -6.128009e-03
2.543462e+06 +2.511945e-04 -6.048362e-03 +9.997488e-01 +6.048362e-03 +9.997488e-01 +6.048362e-03 +2.511945e-04 -6.048362e-03
2.585235e+06 +2.499654e-04 -5.945916e-03 +9.997500e-01 +5.945916e-03 +9.997500e-01 +5.945916e-03 +2.499654e-04 -5.945916e-03
2.643821e+06 +2.483387e-04 -5.807563e-03 +9.997517e-01 +5.807563e-03 +9.997517e-01 +5.807563e-03 +2.483387e-04 -5.807563e-03
2.660725e+06 +2.478892e-04 -5.768748e-03 +9.997521e-01 +5.768748e-03 +9.997521e-01 +5.768748e-03 +2.478892e-04 -5.768748e-03
2.738420e+06 +2.459293e-04 -5.596358e-03 +9.997541e-01 +5.596358e-03 +9.997541e-01 +5.596358e-03 +2.459293e-04 -5.596358e-03
2.748139e+06 +2.456958e-04 -5.575459e-03 +9.997543e-01 +5.575459e-03 +9.997543e-01 +5.575459e-03 +2.456958e-04 -5.575459e-03
2.818383e+06 +2.440792e-04 -5.428603e-03 +9.997559e-01 +5.428603e-03 +9.997559e-01 +5.428603e-03 +2.440792e-04 -5.428603e-03
2.856574e+06 +2.432500e-04 -5.351705e-03 +9.997568e-01 +5.351705e-03 +9.997568e-01 +5.351705e-03 +2.432500e-04 -5.351705e-03
2.900681e+06 +2.423328e-04 -5.265344e-03 +9.997577e-01 +5.265344e-03 +9.997577e-01 +5.265344e-03 +2.423328e-04 -5.265344e-03
2.969287e+06 +2.409867e-04 -5.135964e-03 +9.997590e-01 +5.135964e-03 +9.997590e-01 +5.135964e-03 +2.409867e-04 -5.135964e-03
2.985383e+06 +2.406842e-04 -5.106446e-03 +9.997593e-01 +5.106446e-03 +9.997593e-01 +5.106446e-03 +2.406842e-04 -5.106446e-03
3.072557e+06 +2.391281e-04 -4.951778e-03 +9.997609e-01 +4.951778e-03 +9.997609e-01 +4.951778e-03 +2.391281e-04 -4.951778e-03
3.086448e+06 +2.388922e-04 -4.927914e-03 +9.997611e-01 +4.927914e-03 +9.997611e-01 +4.927914e-03 +2.388922e-04 -4.927914e-03
3.162278e+06 +2.376591e-04 -4.801212e-03 +9.997623e-01 +4.801212e-03 +9.997623e-01 +4.801212e-03 +2.376591e-04 -4.801212e-03
3.208231e+06 +2.369541e-04 -4.727244e-03 +9.997630e-01 +4.727244e-03 +9.997630e-01 +4.727244e-03 +2.369541e-04 -4.727244e-03
3.254618e+06 +2.362726e-04 -4.654622e-03 +9.997637e-01 +4.654622e-03 +9.997637e-01 +4.654622e-03 +2.362726e-04 -4.654622e-03
3.334820e+06 +2.351607e-04 -4.533653e-03 +9.997648e-01 +4.533653e-03 +9.997648e-01 +4.533653e-03 +2.351607e-04 -4.533653e-03
3.349654e+06 +2.349638e-04 -4.511888e-03 +9.997650e-01 +4.511888e-03 +9.997650e-01 +4.511888e-03 +2.349638e-04 -4.511888e-03
3.447466e+06 +2.337285e-04 -4.372892e-03 +9.997663e-01 +4.372892e-03 +9.997663e-01 +4.372892e-03 +2.337285e-04 -4.372892e-03
3.466403e+06 +2.335014e-04 -4.346850e-03 +9.997665e-01 +4.346850e-03 +9.997665e-01 +4.346850e-03 +2.335014e-04 -4.346850e-03
3.548134e+06 +2.325625e-04 -4.237517e-03 +9.997674e-01 +4.237517e-03 +9.997674e-01 +4.237517e-03 +2.325625e-04 -4.237517e-03
3.603179e+06 +2.319660e-04 -4.166558e-03 +9.997680e-01 +4.166558e-03 +9.997680e-01 +4.166558e-03 +2.319660e-04 -4.166558e-03
3.651741e+06 +2.314620e-04 -4.105653e-03 +9.997685e-01 +4.105653e-03 +9.997685e-01 +4.105653e-03 +2.314620e-04 -4.105653e-03
3.745351e+06 +2.305455e-04 -3.992505e-03 +9.997695e-01 +3.992505e-03 +9.997695e-01 +3.992505e-03 +2.305455e-04 -3.992505e-03
3.758374e+06 +2.304234e-04 -3.977189e-03 +9.997696e-01 +3.977189e-03 +9.997696e-01 +3.977189e-03 +2.304234e-04 -3.977189e-03
3.868121e+06 +2.294431e-04 -3.852020e-03 +9.997706e-01 +3.852020e-03 +9.997706e-01 +3.852020e-03 +2.294431e-04 -3.852020e-03
3.893133e+06 +2.292313e-04 -3.824431e-03 +9.997708e-01 +3.824431e-03 +9.997708e-01 +3.824431e-03 +2.292313e-04 -3.824431e-03
3.981072e+06 +2.285180e-04 -3.730042e-03 +9.997715e-01 +3.730042e-03 +9.997715e-01 +3.730042e-03 +2.285180e-04 -3.730042e-03
4.046747e+06 +2.280155e-04 -3.662084e-03 +9.997720e-01 +3.662084e-03 +9.997720e-01 +3.662084e-03 +2.280155e-04 -3.662084e-03
4.097321e+06 +2.276450e-04 -3.611154e-03 +9.997724e-01 +3.611154e-03 +9.997724e-01 +3.611154e-03 +2.276450e-04 -3.611154e-03
4.206421e+06 +2.268909e-04 -3.505222e-03 +9.997731e-01 +3.505222e-03 +9.997731e-01 +3.505222e-03 +2.268909e-04 -3.505222e-03
4.216965e+06 +2.268211e-04 -3.495257e-03 +9.997732e-01 +3.495257e-03 +9.997732e-01 +3.495257e-03 +2.268211e-04 -3.495257e-03
4.340103e+06 +2.260437e-04 -3.382256e-03 +9.997740e-01 +3.382256e-03 +9.997740e-01 +3.382256e-03 +2.260437e-04 -3.382256e-03
4.372396e+06 +2.258507e-04 -3.353609e-03 +9.997741e-01 +3.353609e-03 +9.997741e-01 +3.353609e-03 +2.258507e-04 -3.353609e-03
4.466836e+06 +2.253102e-04 -3.272056e-03 +9.997747e-01 +3.272056e-03 +9.997747e-01 +3.272056e-03 +2.253102e-04 -3.272056e-03
4.544919e+06 +2.248887e-04 -3.207019e-03 +9.997751e-01 +3.207019e-03 +9.997751e-01 +3.207019e-03 +2.248887e-04 -3.207019e-03
4.597270e+06 +2.246182e-04 -3.164567e-03 +9.997754e-01 +3.164567e-03 +9.997754e-01 +3.164567e-03 +2.246182e-04 -3.164567e-03
4.724250e+06 +2.239991e-04 -3.065232e-03 +9.997760e-01 +3.065232e-03 +9.997760e-01 +3.065232e-03 +2.239991e-04 -3.065232e-03
4.731513e+06 +2.239652e-04 -3.059700e-03 +9.997760e-01 +3.059700e-03 +9.997760e-01 +3.059700e-03 +2.239652e-04 -3.059700e-03
4.869675e+06 +2.233493e-04 -2.957367e-03 +9.997767e-01 +2.957367e-03 +9.997767e-01 +2.957367e-03 +2.233493e-04 -2.957367e-03
4.910657e+06 +2.231767e-04 -2.928035e-03 +9.997768e-01 +2.928035e-03 +9.997768e-01 +2.928035e-03 +2.231767e-04 -2.928035e-03
5.011872e+06 +2.227684e-04 -2.857484e-03 +9.997772e-01 +2.857484e-03 +9.997772e-01 +2.857484e-03 +2.227684e-04 -2.857484e-03
5.104419e+06 +2.224163e-04 -2.795223e-03 +9.997776e-01 +2.795223e-03 +9.997776e-01 +2.795223e-03 +2.224163e-04 -2.795223e-03
5.158222e+06 +2.222204e-04 -2.759968e-03 +9.997778e-01 +2.759968e-03 +9.997778e-01 +2.759968e-03 +2.222204e-04 -2.759968e-03
5.305827e+06 +2.217136e-04 -2.666598e-03 +9.997783e-01 +2.666598e-03 +9.997783e-01 +2.666598e-03 +2.217136e-04 -2.666598e-03
5.308844e+06 +2.217037e-04 -2.664738e-03 +9.997783e-01 +2.664738e-03 +9.997783e-01 +2.664738e-03 +2.217037e-04 -2.664738e-03
5.463865e+06 +2.212164e-04 -2.571716e-03 +9.997788e-01 +2.571716e-03 +9.997788e-01 +2.571716e-03 +2.212164e-04 -2.571716e-03
5.515181e+06 +2.210643e-04 -2.541967e-03 +9.997789e-01 +2.541967e-03 +9.997789e-01 +2.541967e-03 +2.210643e-04 -2.541967e-03
5.623413e+06 +2.207571e-04 -2.480825e-03 +9.997792e-01 +2.480825e-03 +9.997792e-01 +2.480825e-03 +2.207571e-04 -2.480825e-03
5.732796e+06 +2.204644e-04 -2.421142e-03 +9.997795e-01 +2.421142e-03 +9.997795e-01 +2.421142e-03 +2.204644e-04 -2.421142e-03
5.787620e+06 +2.203241e-04 -2.391989e-03 +9.997797e-01 +2.391989e-03 +9.997797e-01 +2.391989e-03 +2.203241e-04 -2.391989e-03
5.956621e+06 +2.199160e-04 -2.305134e-03 +9.997801e-01 +2.305134e-03 +9.997801e-01 +2.305134e-03 +2.199160e-04 -2.305134e-03
5.958998e+06 +2.199105e-04 -2.303944e-03 +9.997801e-01 +2.303944e-03 +9.997801e-01 +2.303944e-03 +2.199105e-04 -2.303944e-03
6.130558e+06 +2.195315e-04 -2.220189e-03 +9.997805e-01 +2.220189e-03 +9.997805e-01 +2.220189e-03 +2.195315e-04 -2.220189e-03
6.194125e+06 +2.193992e-04 -2.190196e-03 +9.997806e-01 +2.190196e-03 +9.997806e-01 +2.190196e-03 +2.193992e-04 -2.190196e-03
6.309573e+06 +2.191693e-04 -2.137083e-03 +9.997808e-01 +2.137083e-03 +9.997808e-01 +2.137083e-03 +2.191693e-04 -2.137083e-03
6.438529e+06 +2.189274e-04 -2.079729e-03 +9.997811e-01 +2.079729e-03 +9.997811e-01 +2.079729e-03 +2.189274e-04 -2.079729e-03
6.493816e+06 +2.188282e-04 -2.055748e-03 +9.997812e-01 +2.055748e-03 +9.997812e-01 +2.055748e-03 +2.188282e-04 -2.055748e-03
6.683439e+06 +2.185070e-04 -1.976115e-03 +9.997815e-01 +1.976115e-03 +9.997815e-01 +1.976115e-03 +2.185070e-04 -1.976115e-03
6.692577e+06 +2.184922e-04 -1.972376e-03 +9.997815e-01 +1.972376e-03 +9.997815e-01 +1.972376e-03 +2.184922e-04 -1.972376e-03
6.878599e+06 +2.182048e-04 -1.898120e-03 +9.997818e-01 +1.898120e-03 +9.997818e-01 +1.898120e-03 +2.182048e-04 -1.898120e-03
6.956649e+06 +2.180912e-04 -1.867978e-03 +9.997819e-01 +1.867978e-03 +9.997819e-01 +1.867978e-03 +2.180912e-04 -1.867978e-03
7.079458e+06 +2.179204e-04 -1.821697e-03 +9.997821e-01 +1.821697e-03 +9.997821e-01 +1.821697e-03 +2.179204e-04 -1.821697e-03
7.231141e+06 +2.177219e-04 -1.766377e-03 +9.997823e-01 +1.766377e-03 +9.997823e-01 +1.766377e-03 +2.177219e-04 -1.766377e-03
7.286182e+06 +2.176530e-04 -1.746783e-03 +9.997823e-01 +1.746783e-03 +9.997823e-01 +1.746783e-03 +2.176530e-04 -1.746783e-03
7.498942e+06 +2.174017e-04 -1.673317e-03 +9.997826e-01 +1.673317e-03 +9.997826e-01 +1.673317e-03 +2.174017e-04 -1.673317e-03
7.516464e+06 +2.173820e-04 -1.667421e-03 +9.997826e-01 +1.667421e-03 +9.997826e-01 +1.667421e-03 +2.173820e-04 -1.667421e-03
7.717915e+06 +2.171656e-04 -1.601236e-03 +9.997828e-01 +1.601236e-03 +9.997828e-01 +1.601236e-03 +2.171656e-04 -1.601236e-03
7.813044e+06 +2.170695e-04 -1.570963e-03 +9.997829e-01 +1.570963e-03 +9.997829e-01 +1.570963e-03 +2.170695e-04 -1.570963e-03
7.943282e+06 +2.169439e-04 -1.530483e-03 +9.997831e-01 +1.530483e-03 +9.997831e-01 +1.530483e-03 +2.169439e-04 -1.530483e-03
8.121327e+06 +2.167826e-04 -1.476858e-03 +9.997832e-01 +1.476858e-03 +9.997832e-01 +1.476858e-03 +2.167826e-04 -1.476858e-03
8.175230e+06 +2.167360e-04 -1.460997e-03 +9.997833e-01 +1.460997e-03 +9.997833e-01 +1.460997e-03 +2.167360e-04 -1.460997e-03
8.413951e+06 +2.165411e-04 -1.392721e-03 +9.997835e-01 +1.392721e-03 +9.997835e-01 +1.392721e-03 +2.165411e-04 -1.392721e-03
8.441774e+06 +2.165196e-04 -1.384965e-03 +9.997835e-01 +1.384965e-03 +9.997835e-01 +1.384965e-03 +2.165196e-04 -1.384965e-03
8.659643e+06 +2.163586e-04 -1.325600e-03 +9.997836e-01 +1.325600e-03 +9.997836e-01 +1.325600e-03 +2.163586e-04 -1.325600e-03
8.774865e+06 +2.162788e-04 -1.295146e-03 +9.997837e-01 +1.295146e-03 +9.997837e-01 +1.295146e-03 +2.162788e-04 -1.295146e-03
8.912509e+06 +2.161879e-04 -1.259576e-03 +9.997838e-01 +1.259576e-03 +9.997838e-01 +1.259576e-03 +2.161879e-04 -1.259576e-03
9.121099e+06 +2.160588e-04 -1.207267e-03 +9.997839e-01 +1.207267e-03 +9.997839e-01 +1.207267e-03 +2.160588e-04 -1.207267e-03
9.172759e+06 +2.160284e-04 -1.194596e-03 +9.997840e-01 +1.194596e-03 +9.997840e-01 +1.194596e-03 +2.160284e-04 -1.194596e-03
9.440609e+06 +2.158795e-04 -1.130606e-03 +9.997841e-01 +1.130606e-03 +9.997841e-01 +1.130606e-03 +2.158795e-04 -1.130606e-03
9.480995e+06 +2.158584e-04 -1.121196e-03 +9.997841e-01 +1.121196e-03 +9.997841e-01 +1.121196e-03 +2.158584e-04 -1.121196e-03
9.716280e+06 +2.157409e-04 -1.067552e-03 +9.997843e-01 +1.067552e-03 +9.997843e-01 +1.067552e-03 +2.157409e-04 -1.067552e-03
9.855091e+06 +2.156762e-04 -1.036805e-03 +9.997843e-01 +1.036805e-03 +9.997843e-01 +1.036805e-03 +2.156762e-04 -1.036805e-03
1.000000e+07 +2.156120e-04 -1.005383e-03 +9.997844e-01 +1.005383e-03 +9.997844e-01 +1.005383e-03 +2.156120e-04 -1.005383e-03
1.024395e+07 +2.155112e-04 -9.539660e-04 +9.997845e-01 +9.539660e-04 +9.997845e-01 +9.539660e-04 +2.155112e-04 -9.539660e-04
1.029201e+07 +2.154924e-04 -9.440466e-04 +9.997845e-01 +9.440466e-04 +9.997845e-01 +9.440466e-04 +2.154924e-04 -9.440466e-04
1.059254e+07 +2.153817e-04 -8.834923e-04 +9.997846e-01 +8.834923e-04 +9.997846e-01 +8.834923e-04 +2.153817e-04 -8.834923e-04
1.064815e+07 +2.153625e-04 -8.725561e-04 +9.997846e-01 +8.725561e-04 +9.997846e-01 +8.725561e-04 +2.153625e-04 -8.725561e-04
1.090184e+07 +2.152795e-04 -8.236700e-04 +9.997847e-01 +8.236700e-04 +9.997847e-01 +8.236700e-04 +2.152795e-04 -8.236700e-04
1.106830e+07 +2.152291e-04 -7.924530e-04 +9.997848e-01 +7.924530e-04 +9.997848e-01 +7.924530e-04 +2.152291e-04 -7.924530e-04
1.122018e+07 +2.151856e-04 -7.645300e-04 +9.997848e-01 +7.645300e-04 +9.997848e-01 +7.645300e-04 +2.151856e-04 -7.645300e-04
1.150502e+07 +2.151102e-04 -7.135369e-04 +9.997849e-01 +7.135369e-04 +9.997849e-01 +7.135369e-04 +2.151102e-04 -7.135369e-04
1.154782e+07 +2.150995e-04 -7.060235e-04 +9.997849e-01 +7.060235e-04 +9.997849e-01 +7.060235e-04 +2.150995e-04 -7.060235e-04
1.188502e+07 +2.150211e-04 -6.481018e-04 +9.997850e-01 +6.481018e-04 +9.997850e-01 +6.481018e-04 +2.150211e-04 -6.481018e-04
1.195898e+07 +2.150051e-04 -6.356894e-04 +9.997850e-01 +6.356894e-04 +9.997850e-01 +6.356894e-04 +2.150051e-04 -6.356894e-04
1.223207e+07 +2.149500e-04 -5.907171e-04 +9.997851e-01 +5.907171e-04 +9.997851e-01 +5.907171e-04 +2.149500e-04 -5.907171e-04
1.243085e+07 +2.149133e-04 -5.587941e-04 +9.997851e-01 +5.587941e-04 +9.997851e-01 +5.587941e-04 +2.149133e-04 -5.587941e-04
1.258925e+07 +2.148860e-04 -5.338217e-04 +9.997851e-01 +5.338217e-04 +9.997851e-01 +5.338217e-04 +2.148860e-04 -5.338217e-04
1.292134e+07 +2.148340e-04 -4.827357e-04 +9.997852e-01 +4.827357e-04 +9.997852e-01 +4.827357e-04 +2.148340e-04 -4.827357e-04
1.295687e+07 +2.148289e-04 -4.773687e-04 +9.997852e-01 +4.773687e-04 +9.997852e-01 +4.773687e-04 +2.148289e-04 -4.773687e-04
1.333521e+07 +2.147785e-04 -4.213110e-04 +9.997852e-01 +4.213110e-04 +9.997852e-01 +4.213110e-04 +2.147785e-04 -4.213110e-04
1.343119e+07 +2.147669e-04 -4.074003e-04 +9.997852e-01 +4.074003e-04 +9.997852e-01 +4.074003e-04 +2.147669e-04 -4.074003e-04
1.372461e+07 +2.147346e-04 -3.656025e-04 +9.997853e-01 +3.656025e-04 +9.997853e-01 +3.656025e-04 +2.147346e-04 -3.656025e-04
1.396115e+07 +2.147116e-04 -3.326751e-04 +9.997853e-01 +3.326751e-04 +9.997853e-01 +3.326751e-04 +2.147116e-04 -3.326751e-04
1.412538e+07 +2.146972e-04 -3.101968e-04 +9.997853e-01 +3.101968e-04 +9.997853e-01 +3.101968e-04 +2.146972e-04 -3.101968e-04
1.451202e+07 +2.146677e-04 -2.584481e-04 +9.997853e-01 +2.584481e-04 +9.997853e-01 +2.584481e-04 +2.146677e-04 -2.584481e-04
1.453784e+07 +2.146660e-04 -2.550481e-04 +9.997853e-01 +2.550481e-04 +9.997853e-01 +2.550481e-04 +2.146660e-04 -2.550481e-04
1.496236e+07 +2.146410e-04 -2.001107e-04 +9.997854e-01 +2.001107e-04 +9.997854e-01 +2.001107e-04 +2.146410e-04 -2.001107e-04
1.508463e+07 +2.146350e-04 -1.846083e-04 +9.997854e-01 +1.846083e-04 +9.997854e-01 +1.846083e-04 +2.146350e-04 -1.846083e-04
1.539927e+07 +2.146221e-04 -1.453391e-04 +9.997854e-01 +1.453391e-04 +9.997854e-01 +1.453391e-04 +2.146221e-04 -1.453391e-04
1.567983e+07 +2.146133e-04 -1.110450e-04 +9.997854e-01 +1.110450e-04 +9.997854e-01 +1.110450e-04 +2.146133e-04 -1.110450e-04
1.584893e+07 +2.146091e-04 -9.068784e-05 +9.997854e-01 +9.068784e-05 +9.997854e-01 +9.068784e-05 +2.146091e-04 -9.068784e-05
1.629851e+07 +2.146023e-04 -3.764793e-05 +9.997854e-01 +3.764793e-05 +9.997854e-01 +3.764793e-05 +2.146023e-04 -3.764793e-05
1.631173e+07 +2.146022e-04 -3.611176e-05 +9.997854e-01 +3.611176e-05 +9.997854e-01 +3.611176e-05 +2.146022e-04 -3.611176e-05
1.678804e+07 +2.146013e-04 +1.843440e-05 +9.997854e-01 -1.843440e-05 +9.997854e-01 -1.843440e-05 +2.146013e-04 +1.843440e-05
1.694161e+07 +2.146022e-04 +3.569271e-05 +9.997854e-01 -3.569271e-05 +9.997854e-01 -3.569271e-05 +2.146022e-04 +3.569271e-05
1.727826e+07 +2.146062e-04 +7.299584e-05 +9.997854e-01 -7.299584e-05 +9.997854e-01 -7.299584e-05 +2.146062e-04 +7.299584e-05
1.761009e+07 +2.146128e-04 +1.090868e-04 +9.997854e-01 -1.090868e-04 +9.997854e-01 -1.090868e-04 +2.146128e-04 +1.090868e-04
1.778279e+07 +2.146172e-04 +1.276177e-04 +9.997854e-01 -1.276177e-04 +9.997854e-01 -1.276177e-04 +2.146172e-04 +1.276177e-04
1.830206e+07 +2.146342e-04 +1.823454e-04 +9.997854e-01 -1.823454e-04 +9.997854e-01 -1.823454e-04 +2.146342e-04 +1.823454e-04
1.830493e+07 +2.146343e-04 +1.826443e-04 +9.997854e-01 -1.826443e-04 +9.997854e-01 -1.826443e-04 +2.146343e-04 +1.826443e-04
1.883649e+07 +2.146572e-04 +2.372241e-04 +9.997853e-01 -2.372241e-04 +9.997853e-01 -2.372241e-04 +2.146572e-04 +2.372241e-04
1.902720e+07 +2.146667e-04 +2.564753e-04 +9.997853e-01 -2.564753e-04 +9.997853e-01 -2.564753e-04 +2.146667e-04 +2.564753e-04
1.938653e+07 +2.146864e-04 +2.922993e-04 +9.997853e-01 -2.922993e-04 +9.997853e-01 -2.922993e-04 +2.146864e-04 +2.922993e-04
1.977797e+07 +2.147103e-04 +3.306905e-04 +9.997853e-01 -3.306905e-04 +9.997853e-01 -3.306905e-04 +2.147103e-04 +3.306905e-04
1.995262e+07 +2.147218e-04 +3.476167e-04 +9.997853e-01 -3.476167e-04 +9.997853e-01 -3.476167e-04 +2.147218e-04 +3.476167e-04
2.053525e+07 +2.147635e-04 +4.032221e-04 +9.997852e-01 -4.032221e-04 +9.997852e-01 -4.032221e-04 +2.147635e-04 +4.032221e-04
2.055835e+07 +2.147653e-04 +4.054010e-04 +9.997852e-01 -4.054010e-04 +9.997852e-01 -4.054010e-04 +2.147653e-04 +4.054010e-04
2.113489e+07 +2.148118e-04 +4.591615e-04 +9.997852e-01 -4.591615e-04 +9.997852e-01 -4.591615e-04 +2.148118e-04 +4.591615e-04
2.136954e+07 +2.148320e-04 +4.807186e-04 +9.997852e-01 -4.807186e-04 +9.997852e-01 -4.807186e-04 +2.148320e-04 +4.807186e-04
2.175204e+07 +2.148667e-04 +5.154813e-04 +9.997851e-01 -5.154813e-04 +9.997851e-01 -5.154813e-04 +2.148667e-04 +5.154813e-04
2.221272e+07 +2.149109e-04 +5.567563e-04 +9.997851e-01 -5.567563e-04 +9.997851e-01 -5.567563e-04 +2.149109e-04 +5.567563e-04
2.238721e+07 +2.149284e-04 +5.722282e-04 +9.997851e-01 -5.722282e-04 +9.997851e-01 -5.722282e-04 +2.149284e-04 +5.722282e-04
2.304093e+07 +2.149972e-04 +6.294492e-04 +9.997850e-01 -6.294492e-04 +9.997850e-01 -6.294492e-04 +2.149972e-04 +6.294492e-04
2.308918e+07 +2.150025e-04 +6.336278e-04 +9.997850e-01 -6.336278e-04 +9.997850e-01 -6.336278e-04 +2.150025e-04 +6.336278e-04
2.371374e+07 +2.150732e-04 +6.871916e-04 +9.997849e-01 -6.871916e-04 +9.997849e-01 -6.871916e-04 +2.150732e-04 +6.871916e-04
2.400022e+07 +2.151072e-04 +7.114484e-04 +9.997849e-01 -7.114484e-04 +9.997849e-01 -7.114484e-04 +2.151072e-04 +7.114484e-04
2.440619e+07 +2.151568e-04 +7.455033e-04 +9.997848e-01 -7.455033e-04 +9.997848e-01 -7.455033e-04 +2.151568e-04 +7.455033e-04
2.494721e+07 +2.152257e-04 +7.903346e-04 +9.997848e-01 -7.903346e-04 +9.997848e-01 -7.903346e-04 +2.152257e-04 +7.903346e-04
2.511886e+07 +2.152481e-04 +8.044327e-04 +9.997848e-01 -8.044327e-04 +9.997848e-01 -8.044327e-04 +2.152481e-04 +8.044327e-04
2.585235e+07 +2.153476e-04 +8.640285e-04 +9.997847e-01 -8.640285e-04 +9.997847e-01 -8.640285e-04 +2.153476e-04 +8.640285e-04
2.593156e+07 +2.153587e-04 +8.704044e-04 +9.997846e-01 -8.704044e-04 +9.997846e-01 -8.704044e-04 +2.153587e-04 +8.704044e-04
2.660725e+07 +2.154555e-04 +9.243401e-04 +9.997845e-01 -9.243401e-04 +9.997845e-01 -9.243401e-04 +2.154555e-04 +9.243401e-04
2.695476e+07 +2.155070e-04 +9.517779e-04 +9.997845e-01 -9.517779e-04 +9.997845e-01 -9.517779e-04 +2.155070e-04 +9.517779e-04
2.738420e+07 +2.155721e-04 +9.854174e-04 +9.997844e-01 -9.854174e-04 +9.997844e-01 -9.854174e-04 +2.155721e-04 +9.854174e-04
2.801832e+07 +2.156715e-04 +1.034577e-03 +9.997843e-01 -1.034577e-03 +9.997843e-01 -1.034577e-03 +2.156715e-04 +1.034577e-03
2.818383e+07 +2.156980e-04 +1.047311e-03 +9.997843e-01 -1.047311e-03 +9.997843e-01 -1.047311e-03 +2.156980e-04 +1.047311e-03
2.900681e+07 +2.158334e-04 +1.110073e-03 +9.997842e-01 -1.110073e-03 +9.997842e-01 -1.110073e-03 +2.158334e-04 +1.110073e-03
2.912385e+07 +2.158532e-04 +1.118926e-03 +9.997841e-01 -1.118926e-03 +9.997841e-01 -1.118926e-03 +2.158532e-04 +1.118926e-03
2.985383e+07 +2.159789e-04 +1.173754e-03 +9.997840e-01 -1.173754e-03 +9.997840e-01 -1.173754e-03 +2.159789e-04 +1.173754e-03
3.027301e+07 +2.160531e-04 +1.204950e-03 +9.997839e-01 -1.204950e-03 +9.997839e-01 -1.204950e-03 +2.160531e-04 +1.204950e-03
3.072557e+07 +2.161349e-04 +1.238407e-03 +9.997839e-01 -1.238407e-03 +9.997839e-01 -1.238407e-03 +2.161349e-04 +1.238407e-03
3.146750e+07 +2.162725e-04 +1.292779e-03 +9.997837e-01 -1.292779e-03 +9.997837e-01 -1.292779e-03 +2.162725e-04 +1.292779e-03
3.162278e+07 +2.163019e-04 +1.304086e-03 +9.997837e-01 -1.304086e-03 +9.997837e-01 -1.304086e-03 +2.163019e-04 +1.304086e-03
3.254618e+07 +2.164805e-04 +1.370846e-03 +9.997835e-01 -1.370846e-03 +9.997835e-01 -1.370846e-03 +2.164805e-04 +1.370846e-03
3.270913e+07 +2.165127e-04 +1.382545e-03 +9.997835e-01 -1.382545e-03 +9.997835e-01 -1.382545e-03 +2.165127e-04 +1.382545e-03
3.349654e+07 +2.166713e-04 +1.438742e-03 +9.997833e-01 -1.438742e-03 +9.997833e-01 -1.438742e-03 +2.166713e-04 +1.438742e-03
3.399975e+07 +2.167752e-04 +1.474381e-03 +9.997832e-01 -1.474381e-03 +9.997832e-01 -1.474381e-03 +2.167752e-04 +1.474381e-03
3.447466e+07 +2.168749e-04 +1.507829e-03 +9.997831e-01 -1.507829e-03 +9.997831e-01 -1.507829e-03 +2.168749e-04 +1.507829e-03
3.534130e+07 +2.170614e-04 +1.568425e-03 +9.997829e-01 -1.568425e-03 +9.997829e-01 -1.568425e-03 +2.170614e-04 +1.568425e-03
3.548134e+07 +2.170920e-04 +1.578166e-03 +9.997829e-01 -1.578166e-03 +9.997829e-01 -1.578166e-03 +2.170920e-04 +1.578166e-03
3.651741e+07 +2.173233e-04 +1.649809e-03 +9.997827e-01 -1.649809e-03 +9.997827e-01 -1.649809e-03 +2.173233e-04 +1.649809e-03
3.673577e+07 +2.173731e-04 +1.664818e-03 +9.997826e-01 -1.664818e-03 +9.997826e-01 -1.664818e-03 +2.173731e-04 +1.664818e-03
3.758374e+07 +2.175696e-04 +1.722820e-03 +9.997824e-01 -1.722820e-03 +9.997824e-01 -1.722820e-03 +2.175696e-04 +1.722820e-03
3.818527e+07 +2.177122e-04 +1.763705e-03 +9.997823e-01 -1.763705e-03 +9.997823e-01 -1.763705e-03 +2.177122e-04 +1.763705e-03
3.868121e+07 +2.178317e-04 +1.797258e-03 +9.997822e-01 -1.797258e-03 +9.997822e-01 -1.797258e-03 +2.178317e-04 +1.797258e-03
3.969197e+07 +2.180807e-04 +1.865234e-03 +9.997819e-01 -1.865234e-03 +9.997819e-01 -1.865234e-03 +2.180807e-04 +1.865234e-03
3.981072e+07 +2.181105e-04 +1.873185e-03 +9.997819e-01 -1.873185e-03 +9.997819e-01 -1.873185e-03 +2.181105e-04 +1.873185e-03
4.097321e+07 +2.184068e-04 +1.950664e-03 +9.997816e-01 -1.950664e-03 +9.997816e-01 -1.950664e-03 +2.184068e-04 +1.950664e-03
4.125811e+07 +2.184809e-04 +1.969556e-03 +9.997815e-01 -1.969556e-03 +9.997815e-01 -1.969556e-03 +2.184809e-04 +1.969556e-03
4.216965e+07 +2.187217e-04 +2.029758e-03 +9.997813e-01 -2.029758e-03 +9.997813e-01 -2.029758e-03 +2.187217e-04 +2.029758e-03
4.288605e+07 +2.189150e-04 +2.076827e-03 +9.997811e-01 -2.076827e-03 +9.997811e-01 -2.076827e-03 +2.189150e-04 +2.076827e-03
4.340103e+07 +2.190562e-04 +2.110535e-03 +9.997809e-01 -2.110535e-03 +9.997809e-01 -2.110535e-03 +2.190562e-04 +2.110535e-03
4.457823e+07 +2.193858e-04 +2.187210e-03 +9.997806e-01 -2.187210e-03 +9.997806e-01 -2.187210e-03 +2.193858e-04 +2.187210e-03
4.466836e+07 +2.194114e-04 +2.193059e-03 +9.997806e-01 -2.193059e-03 +9.997806e-01 -2.193059e-03 +2.194114e-04 +2.193059e-03
4.597270e+07 +2.197886e-04 +2.277401e-03 +9.997802e-01 -2.277401e-03 +9.997802e-01 -2.277401e-03 +2.197886e-04 +2.277401e-03
4.633717e+07 +2.198960e-04 +2.300868e-03 +9.997801e-01 -2.300868e-03 +9.997801e-01 -2.300868e-03 +2.198960e-04 +2.300868e-03
4.731513e+07 +2.201889e-04 +2.363629e-03 +9.997798e-01 -2.363629e-03 +9.997798e-01 -2.363629e-03 +2.201889e-04 +2.363629e-03
4.816552e+07 +2.204488e-04 +2.417972e-03 +9.997796e-01 -2.417972e-03 +9.997796e-01 -2.417972e-03 +2.204488e-04 +2.417972e-03
4.869675e+07 +2.206136e-04 +2.451815e-03 +9.997794e-01 -2.451815e-03 +9.997794e-01 -2.451815e-03 +2.206136e-04 +2.451815e-03
5.006601e+07 +2.210473e-04 +2.538697e-03 +9.997790e-01 -2.538697e-03 +9.997790e-01 -2.538697e-03 +2.210473e-04 +2.538697e-03
5.011872e+07 +2.210642e-04 +2.542032e-03 +9.997789e-01 -2.542032e-03 +9.997789e-01 -2.542032e-03 +2.210642e-04 +2.542032e-03
5.158222e+07 +2.215422e-04 +2.634356e-03 +9.997785e-01 -2.634356e-03 +9.997785e-01 -2.634356e-03 +2.215422e-04 +2.634356e-03
5.204149e+07 +2.216952e-04 +2.663225e-03 +9.997783e-01 -2.663225e-03 +9.997783e-01 -2.663225e-03 +2.216952e-04 +2.663225e-03
5.308844e+07 +2.220492e-04 +2.728861e-03 +9.997780e-01 -2.728861e-03 +9.997780e-01 -2.728861e-03 +2.220492e-04 +2.728861e-03
5.409491e+07 +2.223964e-04 +2.791741e-03 +9.997776e-01 -2.791741e-03 +9.997776e-01 -2.791741e-03 +2.223964e-04 +2.791741e-03
5.463865e+07 +2.225868e-04 +2.825627e-03 +9.997774e-01 -2.825627e-03 +9.997774e-01 -2.825627e-03 +2.225868e-04 +2.825627e-03
5.622936e+07 +2.231551e-04 +2.924438e-03 +9.997768e-01 -2.924438e-03 +9.997768e-01 -2.924438e-03 +2.231551e-04 +2.924438e-03
5.623413e+07 +2.231569e-04 +2.924734e-03 +9.997768e-01 -2.924734e-03 +9.997768e-01 -2.924734e-03 +2.231569e-04 +2.924734e-03
5.787620e+07 +2.237612e-04 +3.026264e-03 +9.997762e-01 -3.026264e-03 +9.997762e-01 -3.026264e-03 +2.237612e-04 +3.026264e-03
5.844803e+07 +2.239759e-04 +3.061516e-03 +9.997760e-01 -3.061516e-03 +9.997760e-01 -3.061516e-03 +2.239759e-04 +3.061516e-03
5.956621e+07 +2.244019e-04 +3.130301e-03 +9.997756e-01 -3.130301e-03 +9.997756e-01 -3.130301e-03 +2.244019e-04 +3.130301e-03
6.075424e+07 +2.248635e-04 +3.203178e-03 +9.997751e-01 -3.203178e-03 +9.997751e-01 -3.203178e-03 +2.248635e-04 +3.203178e-03
6.130558e+07 +2.250810e-04 +3.236931e-03 +9.997749e-01 -3.236931e-03 +9.997749e-01 -3.236931e-03 +2.250810e-04 +3.236931e-03
6.309573e+07 +2.258007e-04 +3.346242e-03 +9.997742e-01 -3.346242e-03 +9.997742e-01 -3.346242e-03 +2.258007e-04 +3.346242e-03
6.315145e+07 +2.258235e-04 +3.349637e-03 +9.997742e-01 -3.349637e-03 +9.997742e-01 -3.349637e-03 +2.258235e-04 +3.349637e-03
6.493816e+07 +2.265636e-04 +3.458325e-03 +9.997734e-01 -3.458325e-03 +9.997734e-01 -3.458325e-03 +2.265636e-04 +3.458325e-03
6.564324e+07 +2.268615e-04 +3.501113e-03 +9.997731e-01 -3.501113e-03 +9.997731e-01 -3.501113e-03 +2.268615e-04 +3.501113e-03
6.683439e+07 +2.273721e-04 +3.573273e-03 +9.997726e-01 -3.573273e-03 +9.997726e-01 -3.573273e-03 +2.273721e-04 +3.573273e-03
6.823336e+07 +2.279837e-04 +3.657832e-03 +9.997720e-01 -3.657832e-03 +9.997720e-01 -3.657832e-03 +2.279837e-04 +3.657832e-03
6.878599e+07 +2.282288e-04 +3.691181e-03 +9.997718e-01 -3.691181e-03 +9.997718e-01 -3.691181e-03 +2.282288e-04 +3.691181e-03
7.079458e+07 +2.291367e-04 +3.812147e-03 +9.997709e-01 -3.812147e-03 +9.997709e-01 -3.812147e-03 +2.291367e-04 +3.812147e-03
7.092568e+07 +2.291968e-04 +3.820030e-03 +9.997708e-01 -3.820030e-03 +9.997708e-01 -3.820030e-03 +2.291968e-04 +3.820030e-03
7.286182e+07 +2.300987e-04 +3.936271e-03 +9.997699e-01 -3.936271e-03 +9.997699e-01 -3.936271e-03 +2.300987e-04 +3.936271e-03
7.372422e+07 +2.305083e-04 +3.987948e-03 +9.997695e-01 -3.987948e-03 +9.997695e-01 -3.987948e-03 +2.305083e-04 +3.987948e-03
7.498942e+07 +2.311180e-04 +4.063655e-03 +9.997689e-01 -4.063655e-03 +9.997689e-01 -4.063655e-03 +2.311180e-04 +4.063655e-03
7.663319e+07 +2.319258e-04 +4.161838e-03 +9.997681e-01 -4.161838e-03 +9.997681e-01 -4.161838e-03 +2.319258e-04 +4.161838e-03
7.717915e+07 +2.321980e-04 +4.194406e-03 +9.997678e-01 -4.194406e-03 +9.997678e-01 -4.194406e-03 +2.321980e-04 +4.194406e-03
7.943282e+07 +2.333423e-04 +4.328630e-03 +9.997667e-01 -4.328630e-03 +9.997667e-01 -4.328630e-03 +2.333423e-04 +4.328630e-03
7.965695e+07 +2.334579e-04 +4.341961e-03 +9.997665e-01 -4.341961e-03 +9.997665e-01 -4.341961e-03 +2.334579e-04 +4.341961e-03
8.175230e+07 +2.345547e-04 +4.466441e-03 +9.997654e-01 -4.466441e-03 +9.997654e-01 -4.466441e-03 +2.345547e-04 +4.466441e-03
8.280001e+07 +2.351138e-04 +4.528586e-03 +9.997649e-01 -4.528586e-03 +9.997649e-01 -4.528586e-03 +2.351138e-04 +4.528586e-03
8.413951e+07 +2.358391e-04 +4.607951e-03 +9.997642e-01 -4.607951e-03 +9.997642e-01 -4.607951e-03 +2.358391e-04 +4.607951e-03
8.606708e+07 +2.369034e-04 +4.721992e-03 +9.997631e-01 -4.721992e-03 +9.997631e-01 -4.721992e-03 +2.369034e-04 +4.721992e-03
8.659643e+07 +2.371999e-04 +4.753278e-03 +9.997628e-01 -4.753278e-03 +9.997628e-01 -4.753278e-03 +2.371999e-04 +4.753278e-03
8.912509e+07 +2.386415e-04 +4.902542e-03 +9.997614e-01 -4.902542e-03 +9.997614e-01 -4.902542e-03 +2.386415e-04 +4.902542e-03
8.946307e+07 +2.388374e-04 +4.922470e-03 +9.997612e-01 -4.922470e-03 +9.997612e-01 -4.922470e-03 +2.388374e-04 +4.922470e-03
9.172759e+07 +2.401688e-04 +5.055867e-03 +9.997598e-01 -5.055867e-03 +9.997598e-01 -5.055867e-03 +2.401688e-04 +5.055867e-03
9.299306e+07 +2.409274e-04 +5.130319e-03 +9.997591e-01 -5.130319e-03 +9.997591e-01 -5.130319e-03 +2.409274e-04 +5.130319e-03
9.440609e+07 +2.417868e-04 +5.213379e-03 +9.997582e-01 -5.213379e-03 +9.997582e-01 -5.213379e-03 +2.417868e-04 +5.213379e-03
9.666233e+07 +2.431859e-04 +5.345851e-03 +9.997568e-01 -5.345851e-03 +9.997568e-01 -5.345851e-03 +2.431859e-04 +5.345851e-03
9.716280e+07 +2.435008e-04 +5.375210e-03 +9.997565e-01 -5.375210e-03 +9.997565e-01 -5.375210e-03 +2.435008e-04 +5.375210e-03
1.000000e+08 +2.453166e-04 +5.541493e-03 +9.997547e-01 -5.541493e-03 +9.997547e-01 -5.541493e-03 +2.453166e-04 +5.541493e-03
1.004764e+08 +2.456266e-04 +5.569387e-03 +9.997544e-01 -5.569387e-03 +9.997544e-01 -5.569387e-03 +2.456266e-04 +5.569387e-03
1.029201e+08 +2.472401e-04 +5.712366e-03 +9.997528e-01 -5.712366e-03 +9.997528e-01 -5.712366e-03 +2.472401e-04 +5.712366e-03
1.044409e+08 +2.482639e-04 +5.801263e-03 +9.997517e-01 -5.801263e-03 +9.997517e-01 -5.801263e-03 +2.482639e-04 +5.801263e-03
1.059254e+08 +2.492777e-04 +5.887970e-03 +9.997507e-01 -5.887970e-03 +9.997507e-01 -5.887970e-03 +2.492777e-04 +5.887970e-03
1.085619e+08 +2.511137e-04 +6.041826e-03 +9.997489e-01 -6.041826e-03 +9.997489e-01 -6.041826e-03 +2.511137e-04 +6.041826e-03
1.090184e+08 +2.514362e-04 +6.068450e-03 +9.997486e-01 -6.068450e-03 +9.997486e-01 -6.068450e-03 +2.514362e-04 +6.068450e-03
1.122018e+08 +2.537228e-04 +6.253957e-03 +9.997463e-01 -6.253957e-03 +9.997463e-01 -6.253957e-03 +2.537228e-04 +6.253957e-03
1.128455e+08 +2.541931e-04 +6.291435e-03 +9.997458e-01 -6.291435e-03 +9.997458e-01 -6.291435e-03 +2.541931e-04 +6.291435e-03
1.154782e+08 +2.561449e-04 +6.444643e-03 +9.997439e-01 -6.444643e-03 +9.997439e-01 -6.444643e-03 +2.561449e-04 +6.444643e-03
1.172981e+08 +2.575205e-04 +6.550464e-03 +9.997425e-01 -6.550464e-03 +9.997425e-01 -6.550464e-03 +2.575205e-04 +6.550464e-03
1.188502e+08 +2.587107e-04 +6.640666e-03 +9.997413e-01 -6.640666e-03 +9.997413e-01 -6.640666e-03 +2.587107e-04 +6.640666e-03
1.219264e+08 +2.611159e-04 +6.819301e-03 +9.997389e-01 -6.819301e-03 +9.997389e-01 -6.819301e-03 +2.611159e-04 +6.819301e-03
1.223207e+08 +2.614287e-04 +6.842189e-03 +9.997386e-01 -6.842189e-03 +9.997386e-01 -6.842189e-03 +2.614287e-04 +6.842189e-03
1.258925e+08 +2.643078e-04 +7.049378e-03 +9.997357e-01 -7.049378e-03 +9.997357e-01 -7.049378e-03 +2.643078e-04 +7.049378e-03
1.267373e+08 +2.650008e-04 +7.098347e-03 +9.997350e-01 -7.098347e-03 +9.997350e-01 -7.098347e-03 +2.650008e-04 +7.098347e-03
1.295687e+08 +2.673575e-04 +7.262406e-03 +9.997326e-01 -7.262406e-03 +9.997326e-01 -7.262406e-03 +2.673575e-04 +7.262406e-03
1.317380e+08 +2.691984e-04 +7.388021e-03 +9.997308e-01 -7.388021e-03 +9.997308e-01 -7.388021e-03 +2.691984e-04 +7.388021e-03
1.333521e+08 +2.705881e-04 +7.481447e-03 +9.997294e-01 -7.481447e-03 +9.997294e-01 -7.481447e-03 +2.705881e-04 +7.481447e-03
1.369360e+08 +2.737340e-04 +7.688756e-03 +9.997263e-01 -7.688756e-03 +9.997263e-01 -7.688756e-03 +2.737340e-04 +7.688756e-03
1.372461e+08 +2.740101e-04 +7.706683e-03 +9.997260e-01 -7.706683e-03 +9.997260e-01 -7.706683e-03 +2.740101e-04 +7.706683e-03
1.412538e+08 +2.776350e-04 +7.938302e-03 +9.997224e-01 -7.938302e-03 +9.997224e-01 -7.938302e-03 +2.776350e-04 +7.938302e-03
1.423392e+08 +2.786347e-04 +8.001001e-03 +9.997214e-01 -8.001001e-03 +9.997214e-01 -8.001001e-03 +2.786347e-04 +8.001001e-03
1.453784e+08 +2.814747e-04 +8.176493e-03 +9.997185e-01 -8.176493e-03 +9.997185e-01 -8.176493e-03 +2.814747e-04 +8.176493e-03
1.479555e+08 +2.839299e-04 +8.325224e-03 +9.997161e-01 -8.325224e-03 +9.997161e-01 -8.325224e-03 +2.839299e-04 +8.325224e-03
1.496236e+08 +2.855420e-04 +8.421455e-03 +9.997145e-01 -8.421455e-03 +9.997145e-01 -8.421455e-03 +2.855420e-04 +8.421455e-03
1.537935e+08 +2.896513e-04 +8.661908e-03 +9.997103e-01 -8.661908e-03 +9.997103e-01 -8.661908e-03 +2.896513e-04 +8.661908e-03
1.539927e+08 +2.898504e-04 +8.673389e-03 +9.997101e-01 -8.673389e-03 +9.997101e-01 -8.673389e-03 +2.898504e-04 +8.673389e-03
1.584893e+08 +2.944140e-04 +8.932505e-03 +9.997056e-01 -8.932505e-03 +9.997056e-01 -8.932505e-03 +2.944140e-04 +8.932505e-03
1.598618e+08 +2.958331e-04 +9.011559e-03 +9.997042e-01 -9.011559e-03 +9.997042e-01 -9.011559e-03 +2.958331e-04 +9.011559e-03
1.631173e+08 +2.992481e-04 +9.199017e-03 +9.997008e-01 -9.199017e-03 +9.997008e-01 -9.199017e-03 +2.992481e-04 +9.199017e-03
1.661695e+08 +3.025124e-04 +9.374698e-03 +9.996975e-01 -9.374698e-03 +9.996975e-01 -9.374698e-03 +3.025124e-04 +9.374698e-03
1.678804e+08 +3.043687e-04 +9.473144e-03 +9.996956e-01 -9.473144e-03 +9.996956e-01 -9.473144e-03 +3.043687e-04 +9.473144e-03
1.727826e+08 +3.097926e-04 +9.755113e-03 +9.996902e-01 -9.755113e-03 +9.996902e-01 -9.755113e-03 +3.097926e-04 +9.755113e-03
1.778279e+08 +3.155379e-04 +1.004516e-02 +9.996845e-01 -1.004516e-02 +9.996845e-01 -1.004516e-02 +3.155379e-04 +1.004516e-02
1.830206e+08 +3.216237e-04 +1.034352e-02 +9.996784e-01 -1.034352e-02 +9.996784e-01 -1.034352e-02 +3.216237e-04 +1.034352e-02
1.883649e+08 +3.280700e-04 +1.065044e-02 +9.996719e-01 -1.065044e-02 +9.996719e-01 -1.065044e-02 +3.280700e-04 +1.065044e-02
1.938653e+08 +3.348983e-04 +1.096618e-02 +9.996651e-01 -1.096618e-02 +9.996651e-01 -1.096618e-02 +3.348983e-04 +1.096618e-02
1.995262e+08 +3.421310e-04 +1.129099e-02 +9.996579e-01 -1.129099e-02 +9.996579e-01 -1.129099e-02 +3.421310e-04 +1.129099e-02
2.053525e+08 +3.497923e-04 +1.162515e-02 +9.996502e-01 -1.162515e-02 +9.996502e-01 -1.162515e-02 +3.497923e-04 +1.162515e-02
2.113489e+08 +3.579075e-04 +1.196893e-02 +9.996421e-01 -1.196893e-02 +9.996421e-01 -1.196893e-02 +3.579075e-04 +1.196893e-02
2.175204e+08 +3.665034e-04 +1.232262e-02 +9.996335e-01 -1.232262e-02 +9.996335e-01 -1.232262e-02 +3.665034e-04 +1.232262e-02
2.238721e+08 +3.756085e-04 +1.268650e-02 +9.996244e-01 -1.268650e-02 +9.996244e-01 -1.268650e-02 +3.756085e-04 +1.268650e-02
2.304093e+08 +3.852530e-04 +1.306087e-02 +9.996147e-01 -1.306087e-02 +9.996147e-01 -1.306087e-02 +3.852530e-04 +1.306087e-02
2.371374e+08 +3.954688e-04 +1.344606e-02 +9.996045e-01 -1.344606e-02 +9.996045e-01 -1.344606e-02 +3.954688e-04 +1.344606e-02
2.440619e+08 +4.062897e-04 +1.384236e-02 +9.995937e-01 -1.384236e-02 +9.995937e-01 -1.384236e-02 +4.062897e-04 +1.384236e-02
2.511886e+08 +4.177516e-04 +1.425012e-02 +9.995822e-01 -1.425012e-02 +9.995822e-01 -1.425012e-02 +4.177516e-04 +1.425012e-02
2.585235e+08 +4.298923e-04 +1.466966e-02 +9.995701e-01 -1.466966e-02 +9.995701e-01 -1.466966e-02 +4.298923e-04 +1.466966e-02
2.660725e+08 +4.427522e-04 +1.510133e-02 +9.995572e-01 -1.510133e-02 +9.995572e-01 -1.510133e-02 +4.427522e-04 +1.510133e-02
2.738420e+08 +4.563737e-04 +1.554550e-02 +9.995436e-01 -1.554550e-02 +9.995436e-01 -1.554550e-02 +4.563737e-04 +1.554550e-02
2.818383e+08 +4.708020e-04 +1.600251e-02 +9.995292e-01 -1.600251e-02 +9.995292e-01 -1.600251e-02 +4.708020e-04 +1.600251e-02
2.900681e+08 +4.860847e-04 +1.647276e-02 +9.995139e-01 -1.647276e-02 +9.995139e-01 -1.647276e-02 +4.860847e-04 +1.647276e-02
2.985383e+08 +5.022725e-04 +1.695663e-02 +9.994977e-01 -1.695663e-02 +9.994977e-01 -1.695663e-02 +5.022725e-04 +1.695663e-02
3.072557e+08 +5.194190e-04 +1.745451e-02 +9.994806e-01 -1.745451e-02 +9.994806e-01 -1.745451e-02 +5.194190e-04 +1.745451e-02
3.162278e+08 +5.375808e-04 +1.796681e-02 +9.994624e-01 -1.796681e-02 +9.994624e-01 -1.796681e-02 +5.375808e-04 +1.796681e-02
3.254618e+08 +5.568181e-04 +1.849396e-02 +9.994432e-01 -1.849396e-02 +9.994432e-01 -1.849396e-02 +5.568181e-04 +1.849396e-02
3.349654e+08 +5.771945e-04 +1.903639e-02 +9.994228e-01 -1.903639e-02 +9.994228e-01 -1.903639e-02 +5.771945e-04 +1.903639e-02
3.447466e+08 +5.987773e-04 +1.959455e-02 +9.994012e-01 -1.959455e-02 +9.994012e-01 -1.959455e-02 +5.987773e-04 +1.959455e-02
3.548134e+08 +6.216380e-04 +2.016889e-02 +9.993784e-01 -2.016889e-02 +9.993784e-01 -2.016889e-02 +6.216380e-04 +2.016889e-02
3.651741e+08 +6.458522e-04 +2.075988e-02 +9.993541e-01 -2.075988e-02 +9.993541e-01 -2.075988e-02 +6.458522e-04 +2.075988e-02
3.758374e+08 +6.714999e-04 +2.136802e-02 +9.993285e-01 -2.136802e-02 +9.993285e-01 -2.136802e-02 +6.714999e-04 +2.136802e-02
3.868121e+08 +6.986658e-04 +2.199379e-02 +9.993013e-01 -2.199379e-02 +9.993013e-01 -2.199379e-02 +6.986658e-04 +2.199379e-02
3.981072e+08 +7.274399e-04 +2.263771e-02 +9.992726e-01 -2.263771e-02 +9.992726e-01 -2.263771e-02 +7.274399e-04 +2.263771e-02
4.097321e+08 +7.579171e-04 +2.330031e-02 +9.992421e-01 -2.330031e-02 +9.992421e-01 -2.330031e-02 +7.579171e-04 +2.330031e-02
4.216965e+08 +7.901982e-04 +2.398213e-02 +9.992098e-01 -2.398213e-02 +9.992098e-01 -2.398213e-02 +7.901982e-04 +2.398213e-02
4.340103e+08 +8.243898e-04 +2.468372e-02 +9.991756e-01 -2.468372e-02 +9.991756e-01 -2.468372e-02 +8.243898e-04 +2.468372e-02
4.466836e+08 +8.606049e-04 +2.540567e-02 +9.991394e-01 -2.540567e-02 +9.991394e-01 -2.540567e-02 +8.606049e-04 +2.540567e-02
4.597270e+08 +8.989630e-04 +2.614855e-02 +9.991010e-01 -2.614855e-02 +9.991010e-01 -2.614855e-02 +8.989630e-04 +2.614855e-02
4.731513e+08 +9.395907e-04 +2.691298e-02 +9.990604e-01 -2.691298e-02 +9.990604e-01 -2.691298e-02 +9.395907e-04 +2.691298e-02
4.869675e+08 +9.826222e-04 +2.769958e-02 +9.990174e-01 -2.769958e-02 +9.990174e-01 -2.769958e-02 +9.826222e-04 +2.769958e-02
5.011872e+08 +1.028199e-03 +2.850898e-02 +9.989718e-01 -2.850898e-02 +9.989718e-01 -2.850898e-02 +1.028199e-03 +2.850898e-02
5.158222e+08 +1.076473e-03 +2.934185e-02 +9.989235e-01 -2.934185e-02 +9.989235e-01 -2.934185e-02 +1.076473e-03 +2.934185e-02
5.308844e+08 +1.127601e-03 +3.019886e-02 +9.988724e-01 -3.019886e-02 +9.988724e-01 -3.019886e-02 +1.127601e-03 +3.019886e-02
5.463865e+08 +1.181754e-03 +3.108070e-02 +9.988182e-01 -3.108070e-02 +9.988182e-01 -3.108070e-02 +1.181754e-03 +3.108070e-02
5.623413e+08 +1.239109e-03 +3.198810e-02 +9.987609e-01 -3.198810e-02 +9.987609e-01 -3.198810e-02 +1.239109e-03 +3.198810e-02
5.787620e+08 +1.299855e-03 +3.292177e-02 +9.987001e-01 -3.292177e-02 +9.987001e-01 -3.292177e-02 +1.299855e-03 +3.292177e-02
5.956621e+08 +1.364192e-03 +3.388249e-02 +9.986358e-01 -3.388249e-02 +9.986358e-01 -3.388249e-02 +1.364192e-03 +3.388249e-02
6.130558e+08 +1.432333e-03 +3.487102e-02 +9.985677e-01 -3.487102e-02 +9.985677e-01 -3.487102e-02 +1.432333e-03 +3.487102e-02
6.309573e+08 +1.504501e-03 +3.588815e-02 +9.984955e-01 -3.588815e-02 +9.984955e-01 -3.588815e-02 +1.504501e-03 +3.588815e-02
6.493816e+08 +1.580934e-03 +3.693471e-02 +9.984191e-01 -3.693471e-02 +9.984191e-01 -3.693471e-02 +1.580934e-03 +3.693471e-02
6.683439e+08 +1.661883e-03 +3.801154e-02 +9.983381e-01 -3.801154e-02 +9.983381e-01 -3.801154e-02 +1.661883e-03 +3.801154e-02
6.878599e+08 +1.747615e-03 +3.911949e-02 +9.982524e-01 -3.911949e-02 +9.982524e-01 -3.911949e-02 +1.747615e-03 +3.911949e-02
7.079458e+08 +1.838410e-03 +4.025946e-02 +9.981616e-01 -4.025946e-02 +9.981616e-01 -4.025946e-02 +1.838410e-03 +4.025946e-02
7.286182e+08 +1.934567e-03 +4.143234e-02 +9.980654e-01 -4.143234e-02 +9.980654e-01 -4.143234e-02 +1.934567e-03 +4.143234e-02
7.498942e+08 +2.036402e-03 +4.263908e-02 +9.979636e-01 -4.263908e-02 +9.979636e-01 -4.263908e-02 +2.036402e-03 +4.263908e-02
7.717915e+08 +2.144248e-03 +4.388063e-02 +9.978558e-01 -4.388063e-02 +9.978558e-01 -4.388063e-02 +2.144248e-03 +4.388063e-02
7.943282e+08 +2.258459e-03 +4.515797e-02 +9.977415e-01 -4.515797e-02 +9.977415e-01 -4.515797e-02 +2.258459e-03 +4.515797e-02
8.175230e+08 +2.379409e-03 +4.647211e-02 +9.976206e-01 -4.647211e-02 +9.976206e-01 -4.647211e-02 +2.379409e-03 +4.647211e-02
8.413951e+08 +2.507493e-03 +4.782409e-02 +9.974925e-01 -4.782409e-02 +9.974925e-01 -4.782409e-02 +2.507493e-03 +4.782409e-02
8.659643e+08 +2.643132e-03 +4.921496e-02 +9.973569e-01 -4.921496e-02 +9.973569e-01 -4.921496e-02 +2.643132e-03 +4.921496e-02
8.912509e+08 +2.786767e-03 +5.064581e-02 +9.972132e-01 -5.064581e-02 +9.972132e-01 -5.064581e-02 +2.786767e-03 +5.064581e-02
9.172759e+08 +2.938868e-03 +5.211776e-02 +9.970611e-01 -5.211776e-02 +9.970611e-01 -5.211776e-02 +2.938868e-03 +5.211776e-02
9.440609e+08 +3.099931e-03 +5.363194e-02 +9.969001e-01 -5.363194e-02 +9.969001e-01 -5.363194e-02 +3.099931e-03 +5.363194e-02
9.716280e+08 +3.270480e-03 +5.518954e-02 +9.967295e-01 -5.518954e-02 +9.967295e-01 -5.518954e-02 +3.270480e-03 +5.518954e-02
1.000000e+09 +3.451072e-03 +5.679174e-02 +9.965489e-01 -5.679174e-02 +9.965489e-01 -5.679174e-02 +3.451072e-03 +5.679174e-02
