! Touchstone 2-port S-parameters  (series-through model)
! Part: GRM188R71C104KA01_100nF
! Generated: 2026-08-04 18:16 UTC  by s2p tool
! Reference impedance: 50.0 Ohm
! ESL estimated from SRF: 0.989 nH (SRF=16.0 MHz) [PHYSICS ESTIMATE]
! ESTIMATED / behavioral model - NOT manufacturer-measured data.
# Hz S RI R 50
! freq        ReS11      ImS11      ReS21      ImS21      ReS12      ImS12      ReS22      ImS22
1.000000e+04 +7.168953e-01 -4.503498e-01 +2.831047e-01 +4.503498e-01 +2.831047e-01 +4.503498e-01 +7.168953e-01 -4.503498e-01
1.035142e+04 +7.026710e-01 -4.569200e-01 +2.973290e-01 +4.569200e-01 +2.973290e-01 +4.569200e-01 +7.026710e-01 -4.569200e-01
1.071519e+04 +6.880432e-01 -4.631240e-01 +3.119568e-01 +4.631240e-01 +3.119568e-01 +4.631240e-01 +6.880432e-01 -4.631240e-01
1.109175e+04 +6.730309e-01 -4.689317e-01 +3.269691e-01 +4.689317e-01 +3.269691e-01 +4.689317e-01 +6.730309e-01 -4.689317e-01
1.148154e+04 +6.576558e-01 -4.743138e-01 +3.423442e-01 +4.743138e-01 +3.423442e-01 +4.743138e-01 +6.576558e-01 -4.743138e-01
1.188502e+04 +6.419427e-01 -4.792424e-01 +3.580573e-01 +4.792424e-01 +3.580573e-01 +4.792424e-01 +6.419427e-01 -4.792424e-01
1.230269e+04 +6.259190e-01 -4.836915e-01 +3.740810e-01 +4.836915e-01 +3.740810e-01 +4.836915e-01 +6.259190e-01 -4.836915e-01
1.273503e+04 +6.096145e-01 -4.876367e-01 +3.903855e-01 +4.876367e-01 +3.903855e-01 +4.876367e-01 +6.096145e-01 -4.876367e-01
1.318257e+04 +5.930619e-01 -4.910561e-01 +4.069381e-01 +4.910561e-01 +4.069381e-01 +4.910561e-01 +5.930619e-01 -4.910561e-01
1.364583e+04 +5.762955e-01 -4.939304e-01 +4.237045e-01 +4.939304e-01 +4.237045e-01 +4.939304e-01 +5.762955e-01 -4.939304e-01
1.412538e+04 +5.593521e-01 -4.962430e-01 +4.406479e-01 +4.962430e-01 +4.406479e-01 +4.962430e-01 +5.593521e-01 -4.962430e-01
1.462177e+04 +5.422698e-01 -4.979804e-01 +4.577302e-01 +4.979804e-01 +4.577302e-01 +4.979804e-01 +5.422698e-01 -4.979804e-01
1.513561e+04 +5.250879e-01 -4.991325e-01 +4.749121e-01 +4.991325e-01 +4.749121e-01 +4.991325e-01 +5.250879e-01 -4.991325e-01
1.566751e+04 +5.078470e-01 -4.996924e-01 +4.921530e-01 +4.996924e-01 +4.921530e-01 +4.996924e-01 +5.078470e-01 -4.996924e-01
1.621810e+04 +4.905880e-01 -4.996567e-01 +5.094120e-01 +4.996567e-01 +5.094120e-01 +4.996567e-01 +4.905880e-01 -4.996567e-01
1.678804e+04 +4.733521e-01 -4.990257e-01 +5.266479e-01 +4.990257e-01 +5.266479e-01 +4.990257e-01 +4.733521e-01 -4.990257e-01
1.737801e+04 +4.561800e-01 -4.978032e-01 +5.438200e-01 +4.978032e-01 +5.438200e-01 +4.978032e-01 +4.561800e-01 -4.978032e-01
1.798871e+04 +4.391122e-01 -4.959963e-01 +5.608878e-01 +4.959963e-01 +5.608878e-01 +4.959963e-01 +4.391122e-01 -4.959963e-01
1.862087e+04 +4.221880e-01 -4.936158e-01 +5.778120e-01 +4.936158e-01 +5.778120e-01 +4.936158e-01 +4.221880e-01 -4.936158e-01
1.927525e+04 +4.054453e-01 -4.906753e-01 +5.945547e-01 +4.906753e-01 +5.945547e-01 +4.906753e-01 +4.054453e-01 -4.906753e-01
1.995262e+04 +3.889205e-01 -4.871919e-01 +6.110795e-01 +4.871919e-01 +6.110795e-01 +4.871919e-01 +3.889205e-01 -4.871919e-01
2.065380e+04 +3.726480e-01 -4.831852e-01 +6.273520e-01 +4.831852e-01 +6.273520e-01 +4.831852e-01 +3.726480e-01 -4.831852e-01
2.137962e+04 +3.566598e-01 -4.786774e-01 +6.433402e-01 +4.786774e-01 +6.433402e-01 +4.786774e-01 +3.566598e-01 -4.786774e-01
2.213095e+04 +3.409857e-01 -4.736931e-01 +6.590143e-01 +4.736931e-01 +6.590143e-01 +4.736931e-01 +3.409857e-01 -4.736931e-01
2.290868e+04 +3.256528e-01 -4.682585e-01 +6.743472e-01 +4.682585e-01 +6.743472e-01 +4.682585e-01 +3.256528e-01 -4.682585e-01
2.371374e+04 +3.106854e-01 -4.624019e-01 +6.893146e-01 +4.624019e-01 +6.893146e-01 +4.624019e-01 +3.106854e-01 -4.624019e-01
2.454709e+04 +2.961049e-01 -4.561524e-01 +7.038951e-01 +4.561524e-01 +7.038951e-01 +4.561524e-01 +2.961049e-01 -4.561524e-01
2.540973e+04 +2.819300e-01 -4.495404e-01 +7.180700e-01 +4.495404e-01 +7.180700e-01 +4.495404e-01 +2.819300e-01 -4.495404e-01
2.630268e+04 +2.681762e-01 -4.425969e-01 +7.318238e-01 +4.425969e-01 +7.318238e-01 +4.425969e-01 +2.681762e-01 -4.425969e-01
2.722701e+04 +2.548566e-01 -4.353531e-01 +7.451434e-01 +4.353531e-01 +7.451434e-01 +4.353531e-01 +2.548566e-01 -4.353531e-01
2.818383e+04 +2.419810e-01 -4.278404e-01 +7.580190e-01 +4.278404e-01 +7.580190e-01 +4.278404e-01 +2.419810e-01 -4.278404e-01
2.917427e+04 +2.295569e-01 -4.200898e-01 +7.704431e-01 +4.200898e-01 +7.704431e-01 +4.200898e-01 +2.295569e-01 -4.200898e-01
3.019952e+04 +2.175888e-01 -4.121322e-01 +7.824112e-01 +4.121322e-01 +7.824112e-01 +4.121322e-01 +2.175888e-01 -4.121322e-01
3.126079e+04 +2.060793e-01 -4.039973e-01 +7.939207e-01 +4.039973e-01 +7.939207e-01 +4.039973e-01 +2.060793e-01 -4.039973e-01
3.235937e+04 +1.950282e-01 -3.957145e-01 +8.049718e-01 +3.957145e-01 +8.049718e-01 +3.957145e-01 +1.950282e-01 -3.957145e-01
3.349654e+04 +1.844336e-01 -3.873116e-01 +8.155664e-01 +3.873116e-01 +8.155664e-01 +3.873116e-01 +1.844336e-01 -3.873116e-01
3.467369e+04 +1.742914e-01 -3.788156e-01 +8.257086e-01 +3.788156e-01 +8.257086e-01 +3.788156e-01 +1.742914e-01 -3.788156e-01
3.589219e+04 +1.645959e-01 -3.702520e-01 +8.354041e-01 +3.702520e-01 +8.354041e-01 +3.702520e-01 +1.645959e-01 -3.702520e-01
3.715352e+04 +1.553398e-01 -3.616452e-01 +8.446602e-01 +3.616452e-01 +8.446602e-01 +3.616452e-01 +1.553398e-01 -3.616452e-01
3.845918e+04 +1.465146e-01 -3.530178e-01 +8.534854e-01 +3.530178e-01 +8.534854e-01 +3.530178e-01 +1.465146e-01 -3.530178e-01
3.981072e+04 +1.381105e-01 -3.443911e-01 +8.618895e-01 +3.443911e-01 +8.618895e-01 +3.443911e-01 +1.381105e-01 -3.443911e-01
4.120975e+04 +1.301166e-01 -3.357849e-01 +8.698834e-01 +3.357849e-01 +8.698834e-01 +3.357849e-01 +1.301166e-01 -3.357849e-01
4.265795e+04 +1.225213e-01 -3.272175e-01 +8.774787e-01 +3.272175e-01 +8.774787e-01 +3.272175e-01 +1.225213e-01 -3.272175e-01
4.415704e+04 +1.153123e-01 -3.187056e-01 +8.846877e-01 +3.187056e-01 +8.846877e-01 +3.187056e-01 +1.153123e-01 -3.187056e-01
4.570882e+04 +1.084768e-01 -3.102645e-01 +8.915232e-01 +3.102645e-01 +8.915232e-01 +3.102645e-01 +1.084768e-01 -3.102645e-01
4.731513e+04 +1.020016e-01 -3.019081e-01 +8.979984e-01 +3.019081e-01 +8.979984e-01 +3.019081e-01 +1.020016e-01 -3.019081e-01
4.897788e+04 +9.587316e-02 -2.936489e-01 +9.041268e-01 +2.936489e-01 +9.041268e-01 +2.936489e-01 +9.587316e-02 -2.936489e-01
5.069907e+04 +9.007780e-02 -2.854979e-01 +9.099222e-01 +2.854979e-01 +9.099222e-01 +2.854979e-01 +9.007780e-02 -2.854979e-01
5.248075e+04 +8.460184e-02 -2.774651e-01 +9.153982e-01 +2.774651e-01 +9.153982e-01 +2.774651e-01 +8.460184e-02 -2.774651e-01
5.432503e+04 +7.943157e-02 -2.695592e-01 +9.205684e-01 +2.695592e-01 +9.205684e-01 +2.695592e-01 +7.943157e-02 -2.695592e-01
5.623413e+04 +7.455344e-02 -2.617876e-01 +9.254466e-01 +2.617876e-01 +9.254466e-01 +2.617876e-01 +7.455344e-02 -2.617876e-01
5.821032e+04 +6.995403e-02 -2.541568e-01 +9.300460e-01 +2.541568e-01 +9.300460e-01 +2.541568e-01 +6.995403e-02 -2.541568e-01
6.025596e+04 +6.562017e-02 -2.466723e-01 +9.343798e-01 +2.466723e-01 +9.343798e-01 +2.466723e-01 +6.562017e-02 -2.466723e-01
6.237348e+04 +6.153899e-02 -2.393386e-01 +9.384610e-01 +2.393386e-01 +9.384610e-01 +2.393386e-01 +6.153899e-02 -2.393386e-01
6.456542e+04 +5.769791e-02 -2.321593e-01 +9.423021e-01 +2.321593e-01 +9.423021e-01 +2.321593e-01 +5.769791e-02 -2.321593e-01
6.683439e+04 +5.408474e-02 -2.251374e-01 +9.459153e-01 +2.251374e-01 +9.459153e-01 +2.251374e-01 +5.408474e-02 -2.251374e-01
6.918310e+04 +5.068764e-02 -2.182750e-01 +9.493124e-01 +2.182750e-01 +9.493124e-01 +2.182750e-01 +5.068764e-02 -2.182750e-01
7.161434e+04 +4.749520e-02 -2.115736e-01 +9.525048e-01 +2.115736e-01 +9.525048e-01 +2.115736e-01 +4.749520e-02 -2.115736e-01
7.413102e+04 +4.449641e-02 -2.050341e-01 +9.555036e-01 +2.050341e-01 +9.555036e-01 +2.050341e-01 +4.449641e-02 -2.050341e-01
7.673615e+04 +4.168070e-02 -1.986567e-01 +9.583193e-01 +1.986567e-01 +9.583193e-01 +1.986567e-01 +4.168070e-02 -1.986567e-01
7.943282e+04 +3.903791e-02 -1.924414e-01 +9.609621e-01 +1.924414e-01 +9.609621e-01 +1.924414e-01 +3.903791e-02 -1.924414e-01
8.222426e+04 +3.655833e-02 -1.863876e-01 +9.634417e-01 +1.863876e-01 +9.634417e-01 +1.863876e-01 +3.655833e-02 -1.863876e-01
8.511380e+04 +3.423268e-02 -1.804942e-01 +9.657673e-01 +1.804942e-01 +9.657673e-01 +1.804942e-01 +3.423268e-02 -1.804942e-01
8.810489e+04 +3.205210e-02 -1.747599e-01 +9.679479e-01 +1.747599e-01 +9.679479e-01 +1.747599e-01 +3.205210e-02 -1.747599e-01
9.120108e+04 +3.000817e-02 -1.691831e-01 +9.699918e-01 +1.691831e-01 +9.699918e-01 +1.691831e-01 +3.000817e-02 -1.691831e-01
9.440609e+04 +2.809286e-02 -1.637618e-01 +9.719071e-01 +1.637618e-01 +9.719071e-01 +1.637618e-01 +2.809286e-02 -1.637618e-01
9.772372e+04 +2.629855e-02 -1.584939e-01 +9.737015e-01 +1.584939e-01 +9.737015e-01 +1.584939e-01 +2.629855e-02 -1.584939e-01
1.011579e+05 +2.461802e-02 -1.533771e-01 +9.753820e-01 +1.533771e-01 +9.753820e-01 +1.533771e-01 +2.461802e-02 -1.533771e-01
1.047129e+05 +2.304441e-02 -1.484087e-01 +9.769556e-01 +1.484087e-01 +9.769556e-01 +1.484087e-01 +2.304441e-02 -1.484087e-01
1.083927e+05 +2.157125e-02 -1.435861e-01 +9.784288e-01 +1.435861e-01 +9.784288e-01 +1.435861e-01 +2.157125e-02 -1.435861e-01
1.122018e+05 +2.019240e-02 -1.389065e-01 +9.798076e-01 +1.389065e-01 +9.798076e-01 +1.389065e-01 +2.019240e-02 -1.389065e-01
1.161449e+05 +1.890207e-02 -1.343670e-01 +9.810979e-01 +1.343670e-01 +9.810979e-01 +1.343670e-01 +1.890207e-02 -1.343670e-01
1.202264e+05 +1.769480e-02 -1.299646e-01 +9.823052e-01 +1.299646e-01 +9.823052e-01 +1.299646e-01 +1.769480e-02 -1.299646e-01
1.244515e+05 +1.656543e-02 -1.256962e-01 +9.834346e-01 +1.256962e-01 +9.834346e-01 +1.256962e-01 +1.656543e-02 -1.256962e-01
1.288250e+05 +1.550909e-02 -1.215589e-01 +9.844909e-01 +1.215589e-01 +9.844909e-01 +1.215589e-01 +1.550909e-02 -1.215589e-01
1.333521e+05 +1.452120e-02 -1.175493e-01 +9.854788e-01 +1.175493e-01 +9.854788e-01 +1.175493e-01 +1.452120e-02 -1.175493e-01
1.380384e+05 +1.359747e-02 -1.136645e-01 +9.864025e-01 +1.136645e-01 +9.864025e-01 +1.136645e-01 +1.359747e-02 -1.136645e-01
1.428894e+05 +1.273382e-02 -1.099013e-01 +9.872662e-01 +1.099013e-01 +9.872662e-01 +1.099013e-01 +1.273382e-02 -1.099013e-01
1.479108e+05 +1.192646e-02 -1.062564e-01 +9.880735e-01 +1.062564e-01 +9.880735e-01 +1.062564e-01 +1.192646e-02 -1.062564e-01
1.531087e+05 +1.117179e-02 -1.027269e-01 +9.888282e-01 +1.027269e-01 +9.888282e-01 +1.027269e-01 +1.117179e-02 -1.027269e-01
1.584893e+05 +1.046645e-02 -9.930953e-02 +9.895336e-01 +9.930953e-02 +9.895336e-01 +9.930953e-02 +1.046645e-02 -9.930953e-02
1.640590e+05 +9.807281e-03 -9.600130e-02 +9.901927e-01 +9.600130e-02 +9.901927e-01 +9.600130e-02 +9.807281e-03 -9.600130e-02
1.698244e+05 +9.191316e-03 -9.279913e-02 +9.908087e-01 +9.279913e-02 +9.908087e-01 +9.279913e-02 +9.191316e-03 -9.279913e-02
1.757924e+05 +8.615772e-03 -8.970004e-02 +9.913842e-01 +8.970004e-02 +9.913842e-01 +8.970004e-02 +8.615772e-03 -8.970004e-02
1.819701e+05 +8.078040e-03 -8.670105e-02 +9.919220e-01 +8.670105e-02 +9.919220e-01 +8.670105e-02 +8.078040e-03 -8.670105e-02
1.883649e+05 +7.575673e-03 -8.379927e-02 +9.924243e-01 +8.379927e-02 +9.924243e-01 +8.379927e-02 +7.575673e-03 -8.379927e-02
1.949845e+05 +7.106377e-03 -8.099184e-02 +9.928936e-01 +8.099184e-02 +9.928936e-01 +8.099184e-02 +7.106377e-03 -8.099184e-02
2.018366e+05 +6.668004e-03 -7.827595e-02 +9.933320e-01 +7.827595e-02 +9.933320e-01 +7.827595e-02 +6.668004e-03 -7.827595e-02
2.089296e+05 +6.258542e-03 -7.564886e-02 +9.937415e-01 +7.564886e-02 +9.937415e-01 +7.564886e-02 +6.258542e-03 -7.564886e-02
2.162719e+05 +5.876104e-03 -7.310788e-02 +9.941239e-01 +7.310788e-02 +9.941239e-01 +7.310788e-02 +5.876104e-03 -7.310788e-02
2.238721e+05 +5.518927e-03 -7.065038e-02 +9.944811e-01 +7.065038e-02 +9.944811e-01 +7.065038e-02 +5.518927e-03 -7.065038e-02
2.317395e+05 +5.185359e-03 -6.827380e-02 +9.948146e-01 +6.827380e-02 +9.948146e-01 +6.827380e-02 +5.185359e-03 -6.827380e-02
2.398833e+05 +4.873853e-03 -6.597563e-02 +9.951261e-01 +6.597563e-02 +9.951261e-01 +6.597563e-02 +4.873853e-03 -6.597563e-02
2.483133e+05 +4.582962e-03 -6.375342e-02 +9.954170e-01 +6.375342e-02 +9.954170e-01 +6.375342e-02 +4.582962e-03 -6.375342e-02
2.570396e+05 +4.311334e-03 -6.160479e-02 +9.956887e-01 +6.160479e-02 +9.956887e-01 +6.160479e-02 +4.311334e-03 -6.160479e-02
2.660725e+05 +4.057702e-03 -5.952743e-02 +9.959423e-01 +5.952743e-02 +9.959423e-01 +5.952743e-02 +4.057702e-03 -5.952743e-02
2.754229e+05 +3.820882e-03 -5.751906e-02 +9.961791e-01 +5.751906e-02 +9.961791e-01 +5.751906e-02 +3.820882e-03 -5.751906e-02
2.851018e+05 +3.599767e-03 -5.557749e-02 +9.964002e-01 +5.557749e-02 +9.964002e-01 +5.557749e-02 +3.599767e-03 -5.557749e-02
2.951209e+05 +3.393322e-03 -5.370059e-02 +9.966067e-01 +5.370059e-02 +9.966067e-01 +5.370059e-02 +3.393322e-03 -5.370059e-02
3.054921e+05 +3.200580e-03 -5.188627e-02 +9.967994e-01 +5.188627e-02 +9.967994e-01 +5.188627e-02 +3.200580e-03 -5.188627e-02
3.162278e+05 +3.020634e-03 -5.013252e-02 +9.969794e-01 +5.013252e-02 +9.969794e-01 +5.013252e-02 +3.020634e-03 -5.013252e-02
3.273407e+05 +2.852641e-03 -4.843737e-02 +9.971474e-01 +4.843737e-02 +9.971474e-01 +4.843737e-02 +2.852641e-03 -4.843737e-02
3.388442e+05 +2.695809e-03 -4.679892e-02 +9.973042e-01 +4.679892e-02 +9.973042e-01 +4.679892e-02 +2.695809e-03 -4.679892e-02
3.507519e+05 +2.549401e-03 -4.521533e-02 +9.974506e-01 +4.521533e-02 +9.974506e-01 +4.521533e-02 +2.549401e-03 -4.521533e-02
3.630781e+05 +2.412726e-03 -4.368479e-02 +9.975873e-01 +4.368479e-02 +9.975873e-01 +4.368479e-02 +2.412726e-03 -4.368479e-02
3.758374e+05 +2.285140e-03 -4.220557e-02 +9.977149e-01 +4.220557e-02 +9.977149e-01 +4.220557e-02 +2.285140e-03 -4.220557e-02
3.890451e+05 +2.166040e-03 -4.077599e-02 +9.978340e-01 +4.077599e-02 +9.978340e-01 +4.077599e-02 +2.166040e-03 -4.077599e-02
4.027170e+05 +2.054864e-03 -3.939440e-02 +9.979451e-01 +3.939440e-02 +9.979451e-01 +3.939440e-02 +2.054864e-03 -3.939440e-02
4.168694e+05 +1.951087e-03 -3.805923e-02 +9.980489e-01 +3.805923e-02 +9.980489e-01 +3.805923e-02 +1.951087e-03 -3.805923e-02
4.315191e+05 +1.854216e-03 -3.676893e-02 +9.981458e-01 +3.676893e-02 +9.981458e-01 +3.676893e-02 +1.854216e-03 -3.676893e-02
4.466836e+05 +1.763794e-03 -3.552203e-02 +9.982362e-01 +3.552203e-02 +9.982362e-01 +3.552203e-02 +1.763794e-03 -3.552203e-02
4.623810e+05 +1.679393e-03 -3.431707e-02 +9.983206e-01 +3.431707e-02 +9.983206e-01 +3.431707e-02 +1.679393e-03 -3.431707e-02
4.786301e+05 +1.600612e-03 -3.315267e-02 +9.983994e-01 +3.315267e-02 +9.983994e-01 +3.315267e-02 +1.600612e-03 -3.315267e-02
4.954502e+05 +1.527078e-03 -3.202747e-02 +9.984729e-01 +3.202747e-02 +9.984729e-01 +3.202747e-02 +1.527078e-03 -3.202747e-02
5.128614e+05 +1.458443e-03 -3.094017e-02 +9.985416e-01 +3.094017e-02 +9.985416e-01 +3.094017e-02 +1.458443e-03 -3.094017e-02
5.308844e+05 +1.394380e-03 -2.988950e-02 +9.986056e-01 +2.988950e-02 +9.986056e-01 +2.988950e-02 +1.394380e-03 -2.988950e-02
5.495409e+05 +1.334585e-03 -2.887423e-02 +9.986654e-01 +2.887423e-02 +9.986654e-01 +2.887423e-02 +1.334585e-03 -2.887423e-02
5.688529e+05 +1.278776e-03 -2.789318e-02 +9.987212e-01 +2.789318e-02 +9.987212e-01 +2.789318e-02 +1.278776e-03 -2.789318e-02
5.888437e+05 +1.226685e-03 -2.694520e-02 +9.987733e-01 +2.694520e-02 +9.987733e-01 +2.694520e-02 +1.226685e-03 -2.694520e-02
6.095369e+05 +1.178067e-03 -2.602917e-02 +9.988219e-01 +2.602917e-02 +9.988219e-01 +2.602917e-02 +1.178067e-03 -2.602917e-02
6.309573e+05 +1.132689e-03 -2.514403e-02 +9.988673e-01 +2.514403e-02 +9.988673e-01 +2.514403e-02 +1.132689e-03 -2.514403e-02
6.531306e+05 +1.090337e-03 -2.428874e-02 +9.989097e-01 +2.428874e-02 +9.989097e-01 +2.428874e-02 +1.090337e-03 -2.428874e-02
6.760830e+05 +1.050808e-03 -2.346229e-02 +9.989492e-01 +2.346229e-02 +9.989492e-01 +2.346229e-02 +1.050808e-03 -2.346229e-02
6.998420e+05 +1.013915e-03 -2.266370e-02 +9.989861e-01 +2.266370e-02 +9.989861e-01 +2.266370e-02 +1.013915e-03 -2.266370e-02
7.244360e+05 +9.794814e-04 -2.189204e-02 +9.990205e-01 +2.189204e-02 +9.990205e-01 +2.189204e-02 +9.794814e-04 -2.189204e-02
7.498942e+05 +9.473442e-04 -2.114640e-02 +9.990527e-01 +2.114640e-02 +9.990527e-01 +2.114640e-02 +9.473442e-04 -2.114640e-02
7.762471e+05 +9.173503e-04 -2.042589e-02 +9.990826e-01 +2.042589e-02 +9.990826e-01 +2.042589e-02 +9.173503e-04 -2.042589e-02
8.035261e+05 +8.893567e-04 -1.972967e-02 +9.991106e-01 +1.972967e-02 +9.991106e-01 +1.972967e-02 +8.893567e-04 -1.972967e-02
8.317638e+05 +8.632301e-04 -1.905692e-02 +9.991368e-01 +1.905692e-02 +9.991368e-01 +1.905692e-02 +8.632301e-04 -1.905692e-02
8.609938e+05 +8.388462e-04 -1.840684e-02 +9.991612e-01 +1.840684e-02 +9.991612e-01 +1.840684e-02 +8.388462e-04 -1.840684e-02
8.912509e+05 +8.160888e-04 -1.777865e-02 +9.991839e-01 +1.777865e-02 +9.991839e-01 +1.777865e-02 +8.160888e-04 -1.777865e-02
9.225714e+05 +7.948494e-04 -1.717162e-02 +9.992052e-01 +1.717162e-02 +9.992052e-01 +1.717162e-02 +7.948494e-04 -1.717162e-02
9.549926e+05 +7.750268e-04 -1.658503e-02 +9.992250e-01 +1.658503e-02 +9.992250e-01 +1.658503e-02 +7.750268e-04 -1.658503e-02
9.885531e+05 +7.565267e-04 -1.601819e-02 +9.992435e-01 +1.601819e-02 +9.992435e-01 +1.601819e-02 +7.565267e-04 -1.601819e-02
1.023293e+06 +7.392608e-04 -1.547041e-02 +9.992607e-01 +1.547041e-02 +9.992607e-01 +1.547041e-02 +7.392608e-04 -1.547041e-02
1.059254e+06 +7.231468e-04 -1.494105e-02 +9.992769e-01 +1.494105e-02 +9.992769e-01 +1.494105e-02 +7.231468e-04 -1.494105e-02
1.096478e+06 +7.081079e-04 -1.442949e-02 +9.992919e-01 +1.442949e-02 +9.992919e-01 +1.442949e-02 +7.081079e-04 -1.442949e-02
1.135011e+06 +6.940724e-04 -1.393511e-02 +9.993059e-01 +1.393511e-02 +9.993059e-01 +1.393511e-02 +6.940724e-04 -1.393511e-02
1.174898e+06 +6.809734e-04 -1.345734e-02 +9.993190e-01 +1.345734e-02 +9.993190e-01 +1.345734e-02 +6.809734e-04 -1.345734e-02
1.216186e+06 +6.687485e-04 -1.299559e-02 +9.993313e-01 +1.299559e-02 +9.993313e-01 +1.299559e-02 +6.687485e-04 -1.299559e-02
1.258925e+06 +6.573393e-04 -1.254933e-02 +9.993427e-01 +1.254933e-02 +9.993427e-01 +1.254933e-02 +6.573393e-04 -1.254933e-02
1.303167e+06 +6.466914e-04 -1.211802e-02 +9.993533e-01 +1.211802e-02 +9.993533e-01 +1.211802e-02 +6.466914e-04 -1.211802e-02
1.348963e+06 +6.367541e-04 -1.170114e-02 +9.993632e-01 +1.170114e-02 +9.993632e-01 +1.170114e-02 +6.367541e-04 -1.170114e-02
1.396368e+06 +6.274800e-04 -1.129822e-02 +9.993725e-01 +1.129822e-02 +9.993725e-01 +1.129822e-02 +6.274800e-04 -1.129822e-02
1.445440e+06 +6.188248e-04 -1.090876e-02 +9.993812e-01 +1.090876e-02 +9.993812e-01 +1.090876e-02 +6.188248e-04 -1.090876e-02
1.496236e+06 +6.107472e-04 -1.053230e-02 +9.993893e-01 +1.053230e-02 +9.993893e-01 +1.053230e-02 +6.107472e-04 -1.053230e-02
1.548817e+06 +6.032087e-04 -1.016839e-02 +9.993968e-01 +1.016839e-02 +9.993968e-01 +1.016839e-02 +6.032087e-04 -1.016839e-02
1.600000e+06 +5.965729e-04 -9.836919e-03 +9.994034e-01 +9.836919e-03 +9.994034e-01 +9.836919e-03 +5.965729e-04 -9.836919e-03
1.603245e+06 +5.961734e-04 -9.816607e-03 +9.994038e-01 +9.816607e-03 +9.994038e-01 +9.816607e-03 +5.961734e-04 -9.816607e-03
1.659587e+06 +5.896076e-04 -9.476526e-03 +9.994104e-01 +9.476526e-03 +9.994104e-01 +9.476526e-03 +5.896076e-04 -9.476526e-03
1.663132e+06 +5.892167e-04 -9.455890e-03 +9.994108e-01 +9.455890e-03 +9.994108e-01 +9.455890e-03 +5.892167e-04 -9.455890e-03
1.717908e+06 +5.834801e-04 -9.147741e-03 +9.994165e-01 +9.147741e-03 +9.994165e-01 +9.147741e-03 +5.834801e-04 -9.147741e-03
1.728755e+06 +5.824084e-04 -9.089013e-03 +9.994176e-01 +9.089013e-03 +9.994176e-01 +9.089013e-03 +5.824084e-04 -9.089013e-03
1.778279e+06 +5.777617e-04 -8.829863e-03 +9.994222e-01 +8.829863e-03 +9.994222e-01 +8.829863e-03 +5.777617e-04 -8.829863e-03
1.796967e+06 +5.761073e-04 -8.735741e-03 +9.994239e-01 +8.735741e-03 +9.994239e-01 +8.735741e-03 +5.761073e-04 -8.735741e-03
1.840772e+06 +5.724249e-04 -8.522512e-03 +9.994276e-01 +8.522512e-03 +9.994276e-01 +8.522512e-03 +5.724249e-04 -8.522512e-03
1.867871e+06 +5.702755e-04 -8.395544e-03 +9.994297e-01 +8.395544e-03 +9.994297e-01 +8.395544e-03 +5.702755e-04 -8.395544e-03
1.905461e+06 +5.674445e-04 -8.225323e-03 +9.994326e-01 +8.225323e-03 +9.994326e-01 +8.225323e-03 +5.674445e-04 -8.225323e-03
1.941572e+06 +5.648782e-04 -8.067915e-03 +9.994351e-01 +8.067915e-03 +9.994351e-01 +8.067915e-03 +5.648782e-04 -8.067915e-03
1.972423e+06 +5.627965e-04 -7.937941e-03 +9.994372e-01 +7.937941e-03 +9.994372e-01 +7.937941e-03 +5.627965e-04 -7.937941e-03
2.018182e+06 +5.598829e-04 -7.752364e-03 +9.994401e-01 +7.752364e-03 +9.994401e-01 +7.752364e-03 +5.598829e-04 -7.752364e-03
2.041738e+06 +5.584589e-04 -7.660025e-03 +9.994415e-01 +7.660025e-03 +9.994415e-01 +7.660025e-03 +5.584589e-04 -7.660025e-03
2.097814e+06 +5.552599e-04 -7.448418e-03 +9.994447e-01 +7.448418e-03 +9.994447e-01 +7.448418e-03 +5.552599e-04 -7.448418e-03
2.113489e+06 +5.544109e-04 -7.391243e-03 +9.994456e-01 +7.391243e-03 +9.994456e-01 +7.391243e-03 +5.544109e-04 -7.391243e-03
2.180589e+06 +5.509813e-04 -7.155623e-03 +9.994490e-01 +7.155623e-03 +9.994490e-01 +7.155623e-03 +5.509813e-04 -7.155623e-03
2.187762e+06 +5.506332e-04 -7.131275e-03 +9.994494e-01 +7.131275e-03 +9.994494e-01 +7.131275e-03 +5.506332e-04 -7.131275e-03
2.264644e+06 +5.471078e-04 -6.879811e-03 +9.994529e-01 +6.879811e-03 +9.994529e-01 +6.879811e-03 +5.471078e-04 -6.879811e-03
2.266629e+06 +5.470215e-04 -6.873541e-03 +9.994530e-01 +6.873541e-03 +9.994530e-01 +6.873541e-03 +5.470215e-04 -6.873541e-03
2.344229e+06 +5.438179e-04 -6.636552e-03 +9.994562e-01 +6.636552e-03 +9.994562e-01 +6.636552e-03 +5.438179e-04 -6.636552e-03
2.356065e+06 +5.433569e-04 -6.601750e-03 +9.994566e-01 +6.601750e-03 +9.994566e-01 +6.601750e-03 +5.433569e-04 -6.601750e-03
2.426610e+06 +5.407478e-04 -6.401208e-03 +9.994593e-01 +6.401208e-03 +9.994593e-01 +6.401208e-03 +5.407478e-04 -6.401208e-03
2.449029e+06 +5.399654e-04 -6.339843e-03 +9.994600e-01 +6.339843e-03 +9.994600e-01 +6.339843e-03 +5.399654e-04 -6.339843e-03
2.511886e+06 +5.378827e-04 -6.173498e-03 +9.994621e-01 +6.173498e-03 +9.994621e-01 +6.173498e-03 +5.378827e-04 -6.173498e-03
2.545662e+06 +5.368268e-04 -6.087429e-03 +9.994632e-01 +6.087429e-03 +9.994632e-01 +6.087429e-03 +5.368268e-04 -6.087429e-03
2.600160e+06 +5.352091e-04 -5.953151e-03 +9.994648e-01 +5.953151e-03 +9.994648e-01 +5.953151e-03 +5.352091e-04 -5.953151e-03
2.646107e+06 +5.339222e-04 -5.844129e-03 +9.994661e-01 +5.844129e-03 +9.994661e-01 +5.844129e-03 +5.339222e-04 -5.844129e-03
2.691535e+06 +5.327142e-04 -5.739904e-03 +9.994673e-01 +5.739904e-03 +9.994673e-01 +5.739904e-03 +5.327142e-04 -5.739904e-03
2.750516e+06 +5.312342e-04 -5.609581e-03 +9.994688e-01 +5.609581e-03 +9.994688e-01 +5.609581e-03 +5.312342e-04 -5.609581e-03
2.786121e+06 +5.303860e-04 -5.533502e-03 +9.994696e-01 +5.533502e-03 +9.994696e-01 +5.533502e-03 +5.303860e-04 -5.533502e-03
2.859044e+06 +5.287468e-04 -5.383432e-03 +9.994713e-01 +5.383432e-03 +9.994713e-01 +5.383432e-03 +5.287468e-04 -5.383432e-03
2.884032e+06 +5.282135e-04 -5.333701e-03 +9.994718e-01 +5.333701e-03 +9.994718e-01 +5.333701e-03 +5.282135e-04 -5.333701e-03
2.971855e+06 +5.264450e-04 -5.165344e-03 +9.994736e-01 +5.165344e-03 +9.994736e-01 +5.165344e-03 +5.264450e-04 -5.165344e-03
2.985383e+06 +5.261863e-04 -5.140262e-03 +9.994738e-01 +5.140262e-03 +9.994738e-01 +5.140262e-03 +5.261863e-04 -5.140262e-03
3.089116e+06 +5.243149e-04 -4.954991e-03 +9.994757e-01 +4.954991e-03 +9.994757e-01 +4.954991e-03 +5.243149e-04 -4.954991e-03
3.090295e+06 +5.242947e-04 -4.952954e-03 +9.994757e-01 +4.952954e-03 +9.994757e-01 +4.952954e-03 +5.242947e-04 -4.952954e-03
3.198895e+06 +5.225297e-04 -4.771553e-03 +9.994775e-01 +4.771553e-03 +9.994775e-01 +4.771553e-03 +5.225297e-04 -4.771553e-03
3.211005e+06 +5.223440e-04 -4.752057e-03 +9.994777e-01 +4.752057e-03 +9.994777e-01 +4.752057e-03 +5.223440e-04 -4.752057e-03
3.311311e+06 +5.208829e-04 -4.595844e-03 +9.994791e-01 +4.595844e-03 +9.994791e-01 +4.595844e-03 +5.208829e-04 -4.595844e-03
3.337703e+06 +5.205203e-04 -4.556240e-03 +9.994795e-01 +4.556240e-03 +9.994795e-01 +4.556240e-03 +5.205203e-04 -4.556240e-03
3.427678e+06 +5.193464e-04 -4.425617e-03 +9.994807e-01 +4.425617e-03 +9.994807e-01 +4.425617e-03 +5.193464e-04 -4.425617e-03
3.469400e+06 +5.188329e-04 -4.367246e-03 +9.994812e-01 +4.367246e-03 +9.994812e-01 +4.367246e-03 +5.188329e-04 -4.367246e-03
3.548134e+06 +5.179128e-04 -4.260669e-03 +9.994821e-01 +4.260669e-03 +9.994821e-01 +4.260669e-03 +5.179128e-04 -4.260669e-03
3.606294e+06 +5.172717e-04 -4.184792e-03 +9.994827e-01 +4.184792e-03 +9.994827e-01 +4.184792e-03 +5.172717e-04 -4.184792e-03
3.672823e+06 +5.165754e-04 -4.100804e-03 +9.994834e-01 +4.100804e-03 +9.994834e-01 +4.100804e-03 +5.165754e-04 -4.100804e-03
3.748589e+06 +5.158273e-04 -4.008605e-03 +9.994842e-01 +4.008605e-03 +9.994842e-01 +4.008605e-03 +5.158273e-04 -4.008605e-03
3.801894e+06 +5.153277e-04 -3.945830e-03 +9.994847e-01 +3.945830e-03 +9.994847e-01 +3.945830e-03 +5.153277e-04 -3.945830e-03
3.896499e+06 +5.144912e-04 -3.838421e-03 +9.994855e-01 +3.838421e-03 +9.994855e-01 +3.838421e-03 +5.144912e-04 -3.838421e-03
3.935501e+06 +5.141638e-04 -3.795563e-03 +9.994858e-01 +3.795563e-03 +9.994858e-01 +3.795563e-03 +5.141638e-04 -3.795563e-03
4.050245e+06 +5.132552e-04 -3.673986e-03 +9.994867e-01 +3.673986e-03 +9.994867e-01 +3.673986e-03 +5.132552e-04 -3.673986e-03
4.073803e+06 +5.130782e-04 -3.649823e-03 +9.994869e-01 +3.649823e-03 +9.994869e-01 +3.649823e-03 +5.130782e-04 -3.649823e-03
4.210058e+06 +5.121120e-04 -3.515052e-03 +9.994879e-01 +3.515052e-03 +9.994879e-01 +3.515052e-03 +5.121120e-04 -3.515052e-03
4.216965e+06 +5.120656e-04 -3.508438e-03 +9.994879e-01 +3.508438e-03 +9.994879e-01 +3.508438e-03 +5.120656e-04 -3.508438e-03
4.365158e+06 +5.111212e-04 -3.371237e-03 +9.994889e-01 +3.371237e-03 +9.994889e-01 +3.371237e-03 +5.111212e-04 -3.371237e-03
4.376176e+06 +5.110548e-04 -3.361383e-03 +9.994889e-01 +3.361383e-03 +9.994889e-01 +3.361383e-03 +5.110548e-04 -3.361383e-03
4.518559e+06 +5.102405e-04 -3.238058e-03 +9.994898e-01 +3.238058e-03 +9.994898e-01 +3.238058e-03 +5.102405e-04 -3.238058e-03
4.548849e+06 +5.100771e-04 -3.212748e-03 +9.994899e-01 +3.212748e-03 +9.994899e-01 +3.212748e-03 +5.100771e-04 -3.212748e-03
4.677351e+06 +5.094193e-04 -3.108742e-03 +9.994906e-01 +3.108742e-03 +9.994906e-01 +3.108742e-03 +5.094193e-04 -3.108742e-03
4.728335e+06 +5.091732e-04 -3.068924e-03 +9.994908e-01 +3.068924e-03 +9.994908e-01 +3.068924e-03 +5.091732e-04 -3.068924e-03
4.841724e+06 +5.086537e-04 -2.983135e-03 +9.994913e-01 +2.983135e-03 +9.994913e-01 +2.983135e-03 +5.086537e-04 -2.983135e-03
4.914903e+06 +5.083376e-04 -2.929697e-03 +9.994917e-01 +2.929697e-03 +9.994917e-01 +2.929697e-03 +5.083376e-04 -2.929697e-03
5.011872e+06 +5.079401e-04 -2.861086e-03 +9.994921e-01 +2.861086e-03 +9.994921e-01 +2.861086e-03 +5.079401e-04 -2.861086e-03
5.108832e+06 +5.075653e-04 -2.794857e-03 +9.994924e-01 +2.794857e-03 +9.994924e-01 +2.794857e-03 +5.075653e-04 -2.794857e-03
5.188000e+06 +5.072750e-04 -2.742450e-03 +9.994927e-01 +2.742450e-03 +9.994927e-01 +2.742450e-03 +5.072750e-04 -2.742450e-03
5.310414e+06 +5.068517e-04 -2.664203e-03 +9.994931e-01 +2.664203e-03 +9.994931e-01 +2.664203e-03 +5.068517e-04 -2.664203e-03
5.370318e+06 +5.066552e-04 -2.627086e-03 +9.994933e-01 +2.627086e-03 +9.994933e-01 +2.627086e-03 +5.066552e-04 -2.627086e-03
5.519950e+06 +5.061925e-04 -2.537539e-03 +9.994938e-01 +2.537539e-03 +9.994938e-01 +2.537539e-03 +5.061925e-04 -2.537539e-03
5.559043e+06 +5.060778e-04 -2.514855e-03 +9.994939e-01 +2.514855e-03 +9.994939e-01 +2.514855e-03 +5.060778e-04 -2.514855e-03
5.737753e+06 +5.055837e-04 -2.414675e-03 +9.994944e-01 +2.414675e-03 +9.994944e-01 +2.414675e-03 +5.055837e-04 -2.414675e-03
5.754399e+06 +5.055401e-04 -2.405625e-03 +9.994945e-01 +2.405625e-03 +9.994945e-01 +2.405625e-03 +5.055401e-04 -2.405625e-03
5.956621e+06 +5.050394e-04 -2.299265e-03 +9.994950e-01 +2.299265e-03 +9.994950e-01 +2.299265e-03 +5.050394e-04 -2.299265e-03
5.964150e+06 +5.050218e-04 -2.295428e-03 +9.994950e-01 +2.295428e-03 +9.994950e-01 +2.295428e-03 +5.050218e-04 -2.295428e-03
6.165950e+06 +5.045734e-04 -2.195648e-03 +9.994954e-01 +2.195648e-03 +9.994954e-01 +2.195648e-03 +5.045734e-04 -2.195648e-03
6.199480e+06 +5.045033e-04 -2.179619e-03 +9.994955e-01 +2.179619e-03 +9.994955e-01 +2.179619e-03 +5.045033e-04 -2.179619e-03
6.382635e+06 +5.041399e-04 -2.094650e-03 +9.994959e-01 +2.094650e-03 +9.994959e-01 +2.094650e-03 +5.041399e-04 -2.094650e-03
6.444096e+06 +5.040251e-04 -2.067074e-03 +9.994960e-01 +2.067074e-03 +9.994960e-01 +2.067074e-03 +5.040251e-04 -2.067074e-03
6.606934e+06 +5.037367e-04 -1.996150e-03 +9.994963e-01 +1.996150e-03 +9.994963e-01 +1.996150e-03 +5.037367e-04 -1.996150e-03
6.698364e+06 +5.035844e-04 -1.957625e-03 +9.994964e-01 +1.957625e-03 +9.994964e-01 +1.957625e-03 +5.035844e-04 -1.957625e-03
6.839116e+06 +5.033621e-04 -1.900033e-03 +9.994966e-01 +1.900033e-03 +9.994966e-01 +1.900033e-03 +5.033621e-04 -1.900033e-03
6.962664e+06 +5.031785e-04 -1.851108e-03 +9.994968e-01 +1.851108e-03 +9.994968e-01 +1.851108e-03 +5.031785e-04 -1.851108e-03
7.079458e+06 +5.030141e-04 -1.806182e-03 +9.994970e-01 +1.806182e-03 +9.994970e-01 +1.806182e-03 +5.030141e-04 -1.806182e-03
7.237393e+06 +5.028049e-04 -1.747363e-03 +9.994972e-01 +1.747363e-03 +9.994972e-01 +1.747363e-03 +5.028049e-04 -1.747363e-03
7.328245e+06 +5.026911e-04 -1.714485e-03 +9.994973e-01 +1.714485e-03 +9.994973e-01 +1.714485e-03 +5.026911e-04 -1.714485e-03
7.522962e+06 +5.024616e-04 -1.646236e-03 +9.994975e-01 +1.646236e-03 +9.994975e-01 +1.646236e-03 +5.024616e-04 -1.646236e-03
7.585776e+06 +5.023915e-04 -1.624834e-03 +9.994976e-01 +1.624834e-03 +9.994976e-01 +1.624834e-03 +5.023915e-04 -1.624834e-03
7.819799e+06 +5.021463e-04 -1.547574e-03 +9.994979e-01 +1.547574e-03 +9.994979e-01 +1.547574e-03 +5.021463e-04 -1.547574e-03
7.852356e+06 +5.021141e-04 -1.537122e-03 +9.994979e-01 +1.537122e-03 +9.994979e-01 +1.537122e-03 +5.021141e-04 -1.537122e-03
8.128305e+06 +5.018573e-04 -1.451243e-03 +9.994981e-01 +1.451243e-03 +9.994981e-01 +1.451243e-03 +5.018573e-04 -1.451243e-03
8.128349e+06 +5.018573e-04 -1.451230e-03 +9.994981e-01 +1.451230e-03 +9.994981e-01 +1.451230e-03 +5.018573e-04 -1.451230e-03
8.413951e+06 +5.016200e-04 -1.367096e-03 +9.994984e-01 +1.367096e-03 +9.994984e-01 +1.367096e-03 +5.016200e-04 -1.367096e-03
8.449073e+06 +5.015927e-04 -1.357059e-03 +9.994984e-01 +1.357059e-03 +9.994984e-01 +1.357059e-03 +5.015927e-04 -1.357059e-03
8.709636e+06 +5.014011e-04 -1.284579e-03 +9.994986e-01 +1.284579e-03 +9.994986e-01 +1.284579e-03 +5.014011e-04 -1.284579e-03
8.782452e+06 +5.013510e-04 -1.264921e-03 +9.994986e-01 +1.264921e-03 +9.994986e-01 +1.264921e-03 +5.013510e-04 -1.264921e-03
9.015711e+06 +5.011995e-04 -1.203595e-03 +9.994988e-01 +1.203595e-03 +9.994988e-01 +1.203595e-03 +5.011995e-04 -1.203595e-03
9.128985e+06 +5.011307e-04 -1.174678e-03 +9.994989e-01 +1.174678e-03 +9.994989e-01 +1.174678e-03 +5.011307e-04 -1.174678e-03
9.332543e+06 +5.010142e-04 -1.124047e-03 +9.994990e-01 +1.124047e-03 +9.994990e-01 +1.124047e-03 +5.010142e-04 -1.124047e-03
9.489192e+06 +5.009305e-04 -1.086194e-03 +9.994991e-01 +1.086194e-03 +9.994991e-01 +1.086194e-03 +5.009305e-04 -1.086194e-03
9.660509e+06 +5.008445e-04 -1.045840e-03 +9.994992e-01 +1.045840e-03 +9.994992e-01 +1.045840e-03 +5.008445e-04 -1.045840e-03
9.863611e+06 +5.007493e-04 -9.993362e-04 +9.994993e-01 +9.993362e-04 +9.994993e-01 +9.993362e-04 +5.007493e-04 -9.993362e-04
1.000000e+07 +5.006893e-04 -9.688804e-04 +9.994993e-01 +9.688804e-04 +9.994993e-01 +9.688804e-04 +5.006893e-04 -9.688804e-04
1.025280e+07 +5.005859e-04 -9.139757e-04 +9.994994e-01 +9.139757e-04 +9.994994e-01 +9.139757e-04 +5.005859e-04 -9.139757e-04
1.035142e+07 +5.005481e-04 -8.930769e-04 +9.994995e-01 +8.930769e-04 +9.994995e-01 +8.930769e-04 +5.005481e-04 -8.930769e-04
1.065735e+07 +5.004393e-04 -8.299840e-04 +9.994996e-01 +8.299840e-04 +9.994996e-01 +8.299840e-04 +5.004393e-04 -8.299840e-04
1.071519e+07 +5.004201e-04 -8.183388e-04 +9.994996e-01 +8.183388e-04 +9.994996e-01 +8.183388e-04 +5.004201e-04 -8.183388e-04
1.107787e+07 +5.003088e-04 -7.472355e-04 +9.994997e-01 +7.472355e-04 +9.994997e-01 +7.472355e-04 +5.003088e-04 -7.472355e-04
1.109175e+07 +5.003048e-04 -7.445770e-04 +9.994997e-01 +7.445770e-04 +9.994997e-01 +7.445770e-04 +5.003048e-04 -7.445770e-04
1.148154e+07 +5.002015e-04 -6.717035e-04 +9.994998e-01 +6.717035e-04 +9.994998e-01 +6.717035e-04 +5.002015e-04 -6.717035e-04
1.151497e+07 +5.001934e-04 -6.656061e-04 +9.994998e-01 +6.656061e-04 +9.994998e-01 +6.656061e-04 +5.001934e-04 -6.656061e-04
1.188502e+07 +5.001099e-04 -5.996313e-04 +9.994999e-01 +5.996313e-04 +9.994999e-01 +5.996313e-04 +5.001099e-04 -5.996313e-04
1.196932e+07 +5.000925e-04 -5.849736e-04 +9.994999e-01 +5.849736e-04 +9.994999e-01 +5.849736e-04 +5.000925e-04 -5.849736e-04
1.230269e+07 +5.000293e-04 -5.282745e-04 +9.995000e-01 +5.282745e-04 +9.995000e-01 +5.282745e-04 +5.000293e-04 -5.282745e-04
1.244160e+07 +5.000055e-04 -5.052173e-04 +9.995000e-01 +5.052173e-04 +9.995000e-01 +5.052173e-04 +5.000055e-04 -5.052173e-04
1.273503e+07 +4.999596e-04 -4.575480e-04 +9.995000e-01 +4.575480e-04 +9.995000e-01 +4.575480e-04 +4.999596e-04 -4.575480e-04
1.293252e+07 +4.999319e-04 -4.262177e-04 +9.995001e-01 +4.262177e-04 +9.995001e-01 +4.262177e-04 +4.999319e-04 -4.262177e-04
1.318257e+07 +4.999003e-04 -3.873673e-04 +9.995001e-01 +3.873673e-04 +9.995001e-01 +3.873673e-04 +4.999003e-04 -3.873673e-04
1.344280e+07 +4.998712e-04 -3.478564e-04 +9.995001e-01 +3.478564e-04 +9.995001e-01 +3.478564e-04 +4.998712e-04 -3.478564e-04
1.364583e+07 +4.998511e-04 -3.176487e-04 +9.995001e-01 +3.176487e-04 +9.995001e-01 +3.176487e-04 +4.998511e-04 -3.176487e-04
1.397322e+07 +4.998231e-04 -2.700162e-04 +9.995002e-01 +2.700162e-04 +9.995002e-01 +2.700162e-04 +4.998231e-04 -2.700162e-04
1.412538e+07 +4.998118e-04 -2.483091e-04 +9.995002e-01 +2.483091e-04 +9.995002e-01 +2.483091e-04 +4.998118e-04 -2.483091e-04
1.452457e+07 +4.997872e-04 -1.925803e-04 +9.995002e-01 +1.925803e-04 +9.995002e-01 +1.925803e-04 +4.997872e-04 -1.925803e-04
1.462177e+07 +4.997823e-04 -1.792658e-04 +9.995002e-01 +1.792658e-04 +9.995002e-01 +1.792658e-04 +4.997823e-04 -1.792658e-04
1.509767e+07 +4.997635e-04 -1.154330e-04 +9.995002e-01 +1.154330e-04 +9.995002e-01 +1.154330e-04 +4.997635e-04 -1.154330e-04
1.513561e+07 +4.997623e-04 -1.104363e-04 +9.995002e-01 +1.104363e-04 +9.995002e-01 +1.104363e-04 +4.997623e-04 -1.104363e-04
1.566751e+07 +4.997519e-04 -4.173857e-05 +9.995002e-01 +4.173857e-05 +9.995002e-01 +4.173857e-05 +4.997519e-04 -4.173857e-05
1.569338e+07 +4.997516e-04 -3.845845e-05 +9.995002e-01 +3.845845e-05 +9.995002e-01 +3.845845e-05 +4.997516e-04 -3.845845e-05
1.621810e+07 +4.997508e-04 +2.690937e-05 +9.995002e-01 -2.690937e-05 +9.995002e-01 -2.690937e-05 +4.997508e-04 +2.690937e-05
1.631261e+07 +4.997516e-04 +3.845845e-05 +9.995002e-01 -3.845845e-05 +9.995002e-01 -3.845845e-05 +4.997516e-04 +3.845845e-05
1.678804e+07 +4.997593e-04 +9.558941e-05 +9.995002e-01 -9.558941e-05 +9.995002e-01 -9.558941e-05 +4.997593e-04 +9.558941e-05
1.695626e+07 +4.997635e-04 +1.154330e-04 +9.995002e-01 -1.154330e-04 +9.995002e-01 -1.154330e-04 +4.997635e-04 +1.154330e-04
1.737801e+07 +4.997772e-04 +1.643835e-04 +9.995002e-01 -1.643835e-04 +9.995002e-01 -1.643835e-04 +4.997772e-04 +1.643835e-04
1.762531e+07 +4.997872e-04 +1.925803e-04 +9.995002e-01 -1.925803e-04 +9.995002e-01 -1.925803e-04 +4.997872e-04 +1.925803e-04
1.798871e+07 +4.998046e-04 +2.333737e-04 +9.995002e-01 -2.333737e-04 +9.995002e-01 -2.333737e-04 +4.998046e-04 +2.333737e-04
1.832076e+07 +4.998231e-04 +2.700162e-04 +9.995002e-01 -2.700162e-04 +9.995002e-01 -2.700162e-04 +4.998231e-04 +2.700162e-04
1.862087e+07 +4.998418e-04 +3.026423e-04 +9.995002e-01 -3.026423e-04 +9.995002e-01 -3.026423e-04 +4.998418e-04 +3.026423e-04
1.904365e+07 +4.998712e-04 +3.478564e-04 +9.995001e-01 -3.478564e-04 +9.995001e-01 -3.478564e-04 +4.998712e-04 +3.478564e-04
1.927525e+07 +4.998888e-04 +3.722720e-04 +9.995001e-01 -3.722720e-04 +9.995001e-01 -3.722720e-04 +4.998888e-04 +3.722720e-04
1.979507e+07 +4.999319e-04 +4.262177e-04 +9.995001e-01 -4.262177e-04 +9.995001e-01 -4.262177e-04 +4.999319e-04 +4.262177e-04
1.995262e+07 +4.999459e-04 +4.423458e-04 +9.995001e-01 -4.423458e-04 +9.995001e-01 -4.423458e-04 +4.999459e-04 +4.423458e-04
2.057613e+07 +5.000055e-04 +5.052173e-04 +9.995000e-01 -5.052173e-04 +9.995000e-01 -5.052173e-04 +5.000055e-04 +5.052173e-04
2.065380e+07 +5.000134e-04 +5.129473e-04 +9.995000e-01 -5.129473e-04 +9.995000e-01 -5.129473e-04 +5.000134e-04 +5.129473e-04
2.137962e+07 +5.000915e-04 +5.841608e-04 +9.994999e-01 -5.841608e-04 +9.994999e-01 -5.841608e-04 +5.000915e-04 +5.841608e-04
2.138801e+07 +5.000925e-04 +5.849736e-04 +9.994999e-01 -5.849736e-04 +9.994999e-01 -5.849736e-04 +5.000925e-04 +5.849736e-04
2.213095e+07 +5.001808e-04 +6.560712e-04 +9.994998e-01 -6.560712e-04 +9.994998e-01 -6.560712e-04 +5.001808e-04 +6.560712e-04
2.223193e+07 +5.001934e-04 +6.656061e-04 +9.994998e-01 -6.656061e-04 +9.994998e-01 -6.656061e-04 +5.001934e-04 +6.656061e-04
2.290868e+07 +5.002815e-04 +7.287643e-04 +9.994997e-01 -7.287643e-04 +9.994997e-01 -7.287643e-04 +5.002815e-04 +7.287643e-04
2.310914e+07 +5.003088e-04 +7.472355e-04 +9.994997e-01 -7.472355e-04 +9.994997e-01 -7.472355e-04 +5.003088e-04 +7.472355e-04
2.371374e+07 +5.003942e-04 +8.023268e-04 +9.994996e-01 -8.023268e-04 +9.994996e-01 -8.023268e-04 +5.003942e-04 +8.023268e-04
2.402097e+07 +5.004393e-04 +8.299840e-04 +9.994996e-01 -8.299840e-04 +9.994996e-01 -8.299840e-04 +5.004393e-04 +8.299840e-04
2.454709e+07 +5.005194e-04 +8.768465e-04 +9.994995e-01 -8.768465e-04 +9.994995e-01 -8.768465e-04 +5.005194e-04 +8.768465e-04
2.496878e+07 +5.005859e-04 +9.139757e-04 +9.994994e-01 -9.139757e-04 +9.994994e-01 -9.139757e-04 +5.005859e-04 +9.139757e-04
2.540973e+07 +5.006577e-04 +9.524123e-04 +9.994993e-01 -9.524123e-04 +9.994993e-01 -9.524123e-04 +5.006577e-04 +9.524123e-04
2.595398e+07 +5.007493e-04 +9.993362e-04 +9.994993e-01 -9.993362e-04 +9.994993e-01 -9.993362e-04 +5.007493e-04 +9.993362e-04
2.630268e+07 +5.008097e-04 +1.029114e-03 +9.994992e-01 -1.029114e-03 +9.994992e-01 -1.029114e-03 +5.008097e-04 +1.029114e-03
2.697806e+07 +5.009305e-04 +1.086194e-03 +9.994991e-01 -1.086194e-03 +9.994991e-01 -1.086194e-03 +5.009305e-04 +1.086194e-03
2.722701e+07 +5.009763e-04 +1.107044e-03 +9.994990e-01 -1.107044e-03 +9.994990e-01 -1.107044e-03 +5.009763e-04 +1.107044e-03
2.804255e+07 +5.011307e-04 +1.174678e-03 +9.994989e-01 -1.174678e-03 +9.994989e-01 -1.174678e-03 +5.011307e-04 +1.174678e-03
2.818383e+07 +5.011581e-04 +1.186295e-03 +9.994988e-01 -1.186295e-03 +9.994988e-01 -1.186295e-03 +5.011581e-04 +1.186295e-03
2.914904e+07 +5.013510e-04 +1.264921e-03 +9.994986e-01 -1.264921e-03 +9.994986e-01 -1.264921e-03 +5.013510e-04 +1.264921e-03
2.917427e+07 +5.013561e-04 +1.266960e-03 +9.994986e-01 -1.266960e-03 +9.994986e-01 -1.266960e-03 +5.013561e-04 +1.266960e-03
3.019952e+07 +5.015712e-04 +1.349137e-03 +9.994984e-01 -1.349137e-03 +9.994984e-01 -1.349137e-03 +5.015712e-04 +1.349137e-03
3.029918e+07 +5.015927e-04 +1.357059e-03 +9.994984e-01 -1.357059e-03 +9.994984e-01 -1.357059e-03 +5.015927e-04 +1.357059e-03
3.126079e+07 +5.018044e-04 +1.432924e-03 +9.994982e-01 -1.432924e-03 +9.994982e-01 -1.432924e-03 +5.018044e-04 +1.432924e-03
3.149471e+07 +5.018573e-04 +1.451230e-03 +9.994981e-01 -1.451230e-03 +9.994981e-01 -1.451230e-03 +5.018573e-04 +1.451230e-03
3.235937e+07 +5.020569e-04 +1.518420e-03 +9.994979e-01 -1.518420e-03 +9.994979e-01 -1.518420e-03 +5.020569e-04 +1.518420e-03
3.273741e+07 +5.021463e-04 +1.547574e-03 +9.994979e-01 -1.547574e-03 +9.994979e-01 -1.547574e-03 +5.021463e-04 +1.547574e-03
3.349654e+07 +5.023298e-04 +1.605728e-03 +9.994977e-01 -1.605728e-03 +9.994977e-01 -1.605728e-03 +5.023298e-04 +1.605728e-03
3.402915e+07 +5.024616e-04 +1.646236e-03 +9.994975e-01 -1.646236e-03 +9.994975e-01 -1.646236e-03 +5.024616e-04 +1.646236e-03
3.467369e+07 +5.026244e-04 +1.694951e-03 +9.994974e-01 -1.694951e-03 +9.994974e-01 -1.694951e-03 +5.026244e-04 +1.694951e-03
3.537185e+07 +5.028049e-04 +1.747363e-03 +9.994972e-01 -1.747363e-03 +9.994972e-01 -1.747363e-03 +5.028049e-04 +1.747363e-03
3.589219e+07 +5.029422e-04 +1.786197e-03 +9.994971e-01 -1.786197e-03 +9.994971e-01 -1.786197e-03 +5.029422e-04 +1.786197e-03
3.676754e+07 +5.031785e-04 +1.851108e-03 +9.994968e-01 -1.851108e-03 +9.994968e-01 -1.851108e-03 +5.031785e-04 +1.851108e-03
3.715352e+07 +5.032847e-04 +1.879573e-03 +9.994967e-01 -1.879573e-03 +9.994967e-01 -1.879573e-03 +5.032847e-04 +1.879573e-03
3.821829e+07 +5.035844e-04 +1.957625e-03 +9.994964e-01 -1.957625e-03 +9.994964e-01 -1.957625e-03 +5.035844e-04 +1.957625e-03
3.845918e+07 +5.036535e-04 +1.975192e-03 +9.994963e-01 -1.975192e-03 +9.994963e-01 -1.975192e-03 +5.036535e-04 +1.975192e-03
3.972629e+07 +5.040251e-04 +2.067074e-03 +9.994960e-01 -2.067074e-03 +9.994960e-01 -2.067074e-03 +5.040251e-04 +2.067074e-03
3.981072e+07 +5.040503e-04 +2.073167e-03 +9.994959e-01 -2.073167e-03 +9.994959e-01 -2.073167e-03 +5.040503e-04 +2.073167e-03
4.120975e+07 +5.044771e-04 +2.173615e-03 +9.994955e-01 -2.173615e-03 +9.994955e-01 -2.173615e-03 +5.044771e-04 +2.173615e-03
4.129378e+07 +5.045033e-04 +2.179619e-03 +9.994955e-01 -2.179619e-03 +9.994955e-01 -2.179619e-03 +5.045033e-04 +2.179619e-03
4.265795e+07 +5.049359e-04 +2.276656e-03 +9.994951e-01 -2.276656e-03 +9.994951e-01 -2.276656e-03 +5.049359e-04 +2.276656e-03
4.292313e+07 +5.050218e-04 +2.295428e-03 +9.994950e-01 -2.295428e-03 +9.994950e-01 -2.295428e-03 +5.050218e-04 +2.295428e-03
4.415704e+07 +5.054289e-04 +2.382413e-03 +9.994946e-01 -2.382413e-03 +9.994946e-01 -2.382413e-03 +5.054289e-04 +2.382413e-03
4.461677e+07 +5.055837e-04 +2.414675e-03 +9.994944e-01 -2.414675e-03 +9.994944e-01 -2.414675e-03 +5.055837e-04 +2.414675e-03
4.570882e+07 +5.059584e-04 +2.491012e-03 +9.994940e-01 -2.491012e-03 +9.994940e-01 -2.491012e-03 +5.059584e-04 +2.491012e-03
4.637724e+07 +5.061925e-04 +2.537539e-03 +9.994938e-01 -2.537539e-03 +9.994938e-01 -2.537539e-03 +5.061925e-04 +2.537539e-03
4.731513e+07 +5.065270e-04 +2.602584e-03 +9.994935e-01 -2.602584e-03 +9.994935e-01 -2.602584e-03 +5.065270e-04 +2.602584e-03
4.820716e+07 +5.068517e-04 +2.664203e-03 +9.994931e-01 -2.664203e-03 +9.994931e-01 -2.664203e-03 +5.068517e-04 +2.664203e-03
4.897788e+07 +5.071374e-04 +2.717259e-03 +9.994929e-01 -2.717259e-03 +9.994929e-01 -2.717259e-03 +5.071374e-04 +2.717259e-03
5.010930e+07 +5.075653e-04 +2.794857e-03 +9.994924e-01 -2.794857e-03 +9.994924e-01 -2.794857e-03 +5.075653e-04 +2.794857e-03
5.069907e+07 +5.077924e-04 +2.835177e-03 +9.994922e-01 -2.835177e-03 +9.994922e-01 -2.835177e-03 +5.077924e-04 +2.835177e-03
5.208648e+07 +5.083376e-04 +2.929697e-03 +9.994917e-01 -2.929697e-03 +9.994917e-01 -2.929697e-03 +5.083376e-04 +2.929697e-03
5.248075e+07 +5.084953e-04 +2.956476e-03 +9.994915e-01 -2.956476e-03 +9.994915e-01 -2.956476e-03 +5.084953e-04 +2.956476e-03
5.414168e+07 +5.091732e-04 +3.068924e-03 +9.994908e-01 -3.068924e-03 +9.994908e-01 -3.068924e-03 +5.091732e-04 +3.068924e-03
5.432503e+07 +5.092494e-04 +3.081303e-03 +9.994908e-01 -3.081303e-03 +9.994908e-01 -3.081303e-03 +5.092494e-04 +3.081303e-03
5.623413e+07 +5.100582e-04 +3.209805e-03 +9.994899e-01 -3.209805e-03 +9.994899e-01 -3.209805e-03 +5.100582e-04 +3.209805e-03
5.627798e+07 +5.100771e-04 +3.212748e-03 +9.994899e-01 -3.212748e-03 +9.994899e-01 -3.212748e-03 +5.100771e-04 +3.212748e-03
5.821032e+07 +5.109257e-04 +3.342136e-03 +9.994891e-01 -3.342136e-03 +9.994891e-01 -3.342136e-03 +5.109257e-04 +3.342136e-03
5.849856e+07 +5.110548e-04 +3.361383e-03 +9.994889e-01 -3.361383e-03 +9.994889e-01 -3.361383e-03 +5.110548e-04 +3.361383e-03
6.025596e+07 +5.118560e-04 +3.478454e-03 +9.994881e-01 -3.478454e-03 +9.994881e-01 -3.478454e-03 +5.118560e-04 +3.478454e-03
6.080677e+07 +5.121120e-04 +3.515052e-03 +9.994879e-01 -3.515052e-03 +9.994879e-01 -3.515052e-03 +5.121120e-04 +3.515052e-03
6.237348e+07 +5.128534e-04 +3.618921e-03 +9.994871e-01 -3.618921e-03 +9.994871e-01 -3.618921e-03 +5.128534e-04 +3.618921e-03
6.320605e+07 +5.132552e-04 +3.673986e-03 +9.994867e-01 -3.673986e-03 +9.994867e-01 -3.673986e-03 +5.132552e-04 +3.673986e-03
6.456542e+07 +5.139229e-04 +3.763706e-03 +9.994861e-01 -3.763706e-03 +9.994861e-01 -3.763706e-03 +5.139229e-04 +3.763706e-03
6.570000e+07 +5.144912e-04 +3.838421e-03 +9.994855e-01 -3.838421e-03 +9.994855e-01 -3.838421e-03 +5.144912e-04 +3.838421e-03
6.683439e+07 +5.150694e-04 +3.912980e-03 +9.994849e-01 -3.912980e-03 +9.994849e-01 -3.912980e-03 +5.150694e-04 +3.912980e-03
6.829235e+07 +5.158273e-04 +4.008605e-03 +9.994842e-01 -4.008605e-03 +9.994842e-01 -4.008605e-03 +5.158273e-04 +4.008605e-03
6.918310e+07 +5.162985e-04 +4.066922e-03 +9.994837e-01 -4.066922e-03 +9.994837e-01 -4.066922e-03 +5.162985e-04 +4.066922e-03
7.098700e+07 +5.172717e-04 +4.184792e-03 +9.994827e-01 -4.184792e-03 +9.994827e-01 -4.184792e-03 +5.172717e-04 +4.184792e-03
7.161434e+07 +5.176160e-04 +4.225715e-03 +9.994824e-01 -4.225715e-03 +9.994824e-01 -4.225715e-03 +5.176160e-04 +4.225715e-03
7.378796e+07 +5.188329e-04 +4.367246e-03 +9.994812e-01 -4.367246e-03 +9.994812e-01 -4.367246e-03 +5.188329e-04 +4.367246e-03
7.413102e+07 +5.190283e-04 +4.389549e-03 +9.994810e-01 -4.389549e-03 +9.994810e-01 -4.389549e-03 +5.190283e-04 +4.389549e-03
7.669945e+07 +5.205203e-04 +4.556240e-03 +9.994795e-01 -4.556240e-03 +9.994795e-01 -4.556240e-03 +5.205203e-04 +4.556240e-03
7.673615e+07 +5.205420e-04 +4.558619e-03 +9.994795e-01 -4.558619e-03 +9.994795e-01 -4.558619e-03 +5.205420e-04 +4.558619e-03
7.943282e+07 +5.221643e-04 +4.733126e-03 +9.994778e-01 -4.733126e-03 +9.994778e-01 -4.733126e-03 +5.221643e-04 +4.733126e-03
7.972582e+07 +5.223440e-04 +4.752057e-03 +9.994777e-01 -4.752057e-03 +9.994777e-01 -4.752057e-03 +5.223440e-04 +4.752057e-03
8.222426e+07 +5.239031e-04 +4.913279e-03 +9.994761e-01 -4.913279e-03 +9.994761e-01 -4.913279e-03 +5.239031e-04 +4.913279e-03
8.287159e+07 +5.243149e-04 +4.954991e-03 +9.994757e-01 -4.954991e-03 +9.994757e-01 -4.954991e-03 +5.243149e-04 +4.954991e-03
8.511380e+07 +5.257666e-04 +5.099292e-03 +9.994742e-01 -5.099292e-03 +9.994742e-01 -5.099292e-03 +5.257666e-04 +5.099292e-03
8.614150e+07 +5.264450e-04 +5.165344e-03 +9.994736e-01 -5.165344e-03 +9.994736e-01 -5.165344e-03 +5.264450e-04 +5.165344e-03
8.810489e+07 +5.277637e-04 +5.291388e-03 +9.994722e-01 -5.291388e-03 +9.994722e-01 -5.291388e-03 +5.277637e-04 +5.291388e-03
8.954042e+07 +5.287468e-04 +5.383432e-03 +9.994713e-01 -5.383432e-03 +9.994713e-01 -5.383432e-03 +5.287468e-04 +5.383432e-03
9.120108e+07 +5.299040e-04 +5.489795e-03 +9.994701e-01 -5.489795e-03 +9.994701e-01 -5.489795e-03 +5.299040e-04 +5.489795e-03
9.307346e+07 +5.312342e-04 +5.609581e-03 +9.994688e-01 -5.609581e-03 +9.994688e-01 -5.609581e-03 +5.312342e-04 +5.609581e-03
9.440609e+07 +5.321976e-04 +5.694750e-03 +9.994678e-01 -5.694750e-03 +9.994678e-01 -5.694750e-03 +5.321976e-04 +5.694750e-03
9.674590e+07 +5.339222e-04 +5.844129e-03 +9.994661e-01 -5.844129e-03 +9.994661e-01 -5.844129e-03 +5.339222e-04 +5.844129e-03
9.772372e+07 +5.346555e-04 +5.906497e-03 +9.994653e-01 -5.906497e-03 +9.994653e-01 -5.906497e-03 +5.346555e-04 +5.906497e-03
1.005633e+08 +5.368268e-04 +6.087429e-03 +9.994632e-01 -6.087429e-03 +9.994632e-01 -6.087429e-03 +5.368268e-04 +6.087429e-03
1.011579e+08 +5.372895e-04 +6.125289e-03 +9.994627e-01 -6.125289e-03 +9.994627e-01 -6.125289e-03 +5.372895e-04 +6.125289e-03
1.045312e+08 +5.399654e-04 +6.339843e-03 +9.994600e-01 -6.339843e-03 +9.994600e-01 -6.339843e-03 +5.399654e-04 +6.339843e-03
1.047129e+08 +5.401120e-04 +6.351386e-03 +9.994599e-01 -6.351386e-03 +9.994599e-01 -6.351386e-03 +5.401120e-04 +6.351386e-03
1.083927e+08 +5.431367e-04 +6.585058e-03 +9.994569e-01 -6.585058e-03 +9.994569e-01 -6.585058e-03 +5.431367e-04 +6.585058e-03
1.086558e+08 +5.433569e-04 +6.601750e-03 +9.994566e-01 -6.601750e-03 +9.994566e-01 -6.601750e-03 +5.433569e-04 +6.601750e-03
1.122018e+08 +5.463778e-04 +6.826583e-03 +9.994536e-01 -6.826583e-03 +9.994536e-01 -6.826583e-03 +5.463778e-04 +6.826583e-03
1.129430e+08 +5.470215e-04 +6.873541e-03 +9.994530e-01 -6.873541e-03 +9.994530e-01 -6.873541e-03 +5.470215e-04 +6.873541e-03
1.161449e+08 +5.498510e-04 +7.076250e-03 +9.994501e-01 -7.076250e-03 +9.994501e-01 -7.076250e-03 +5.498510e-04 +7.076250e-03
1.173995e+08 +5.509813e-04 +7.155623e-03 +9.994490e-01 -7.155623e-03 +9.994490e-01 -7.155623e-03 +5.509813e-04 +7.155623e-03
1.202264e+08 +5.535727e-04 +7.334355e-03 +9.994464e-01 -7.334355e-03 +9.994464e-01 -7.334355e-03 +5.535727e-04 +7.334355e-03
1.220318e+08 +5.552599e-04 +7.448418e-03 +9.994447e-01 -7.448418e-03 +9.994447e-01 -7.448418e-03 +5.552599e-04 +7.448418e-03
1.244515e+08 +5.575607e-04 +7.601206e-03 +9.994424e-01 -7.601206e-03 +9.994424e-01 -7.601206e-03 +5.575607e-04 +7.601206e-03
1.268468e+08 +5.598829e-04 +7.752364e-03 +9.994401e-01 -7.752364e-03 +9.994401e-01 -7.752364e-03 +5.598829e-04 +7.752364e-03
1.288250e+08 +5.618341e-04 +7.877122e-03 +9.994382e-01 -7.877122e-03 +9.994382e-01 -7.877122e-03 +5.618341e-04 +7.877122e-03
1.318519e+08 +5.648782e-04 +8.067915e-03 +9.994351e-01 -8.067915e-03 +9.994351e-01 -8.067915e-03 +5.648782e-04 +8.067915e-03
1.333521e+08 +5.664132e-04 +8.162431e-03 +9.994336e-01 -8.162431e-03 +9.994336e-01 -8.162431e-03 +5.664132e-04 +8.162431e-03
1.370544e+08 +5.702755e-04 +8.395544e-03 +9.994297e-01 -8.395544e-03 +9.994297e-01 -8.395544e-03 +5.702755e-04 +8.395544e-03
1.380384e+08 +5.713198e-04 +8.457472e-03 +9.994287e-01 -8.457472e-03 +9.994287e-01 -8.457472e-03 +5.713198e-04 +8.457472e-03
1.424623e+08 +5.761073e-04 +8.735741e-03 +9.994239e-01 -8.735741e-03 +9.994239e-01 -8.735741e-03 +5.761073e-04 +8.735741e-03
1.428894e+08 +5.765775e-04 +8.762597e-03 +9.994234e-01 -8.762597e-03 +9.994234e-01 -8.762597e-03 +5.765775e-04 +8.762597e-03
1.479108e+08 +5.822113e-04 +9.078170e-03 +9.994178e-01 -9.078170e-03 +9.994178e-01 -9.078170e-03 +5.822113e-04 +9.078170e-03
1.480835e+08 +5.824084e-04 +9.089013e-03 +9.994176e-01 -9.089013e-03 +9.994176e-01 -9.089013e-03 +5.824084e-04 +9.089013e-03
1.531087e+08 +5.882480e-04 +9.404566e-03 +9.994118e-01 -9.404566e-03 +9.994118e-01 -9.404566e-03 +5.882480e-04 +9.404566e-03
1.539265e+08 +5.892167e-04 +9.455890e-03 +9.994108e-01 -9.455890e-03 +9.994108e-01 -9.455890e-03 +5.892167e-04 +9.455890e-03
1.584893e+08 +5.947166e-04 +9.742174e-03 +9.994053e-01 -9.742174e-03 +9.994053e-01 -9.742174e-03 +5.947166e-04 +9.742174e-03
1.600000e+08 +5.965729e-04 +9.836919e-03 +9.994034e-01 -9.836919e-03 +9.994034e-01 -9.836919e-03 +5.965729e-04 +9.836919e-03
1.640590e+08 +6.016477e-04 +1.009140e-02 +9.993984e-01 -1.009140e-02 +9.993984e-01 -1.009140e-02 +6.016477e-04 +1.009140e-02
1.698244e+08 +6.090745e-04 +1.045265e-02 +9.993909e-01 -1.045265e-02 +9.993909e-01 -1.045265e-02 +6.090745e-04 +1.045265e-02
1.757924e+08 +6.170325e-04 +1.082636e-02 +9.993830e-01 -1.082636e-02 +9.993830e-01 -1.082636e-02 +6.170325e-04 +1.082636e-02
1.819701e+08 +6.255595e-04 +1.121297e-02 +9.993744e-01 -1.121297e-02 +9.993744e-01 -1.121297e-02 +6.255595e-04 +1.121297e-02
1.883649e+08 +6.346964e-04 +1.161295e-02 +9.993653e-01 -1.161295e-02 +9.993653e-01 -1.161295e-02 +6.346964e-04 +1.161295e-02
1.949845e+08 +6.444865e-04 +1.202677e-02 +9.993555e-01 -1.202677e-02 +9.993555e-01 -1.202677e-02 +6.444865e-04 +1.202677e-02
2.018366e+08 +6.549767e-04 +1.245492e-02 +9.993450e-01 -1.245492e-02 +9.993450e-01 -1.245492e-02 +6.549767e-04 +1.245492e-02
2.089296e+08 +6.662170e-04 +1.289790e-02 +9.993338e-01 -1.289790e-02 +9.993338e-01 -1.289790e-02 +6.662170e-04 +1.289790e-02
2.162719e+08 +6.782609e-04 +1.335626e-02 +9.993217e-01 -1.335626e-02 +9.993217e-01 -1.335626e-02 +6.782609e-04 +1.335626e-02
2.238721e+08 +6.911660e-04 +1.383053e-02 +9.993088e-01 -1.383053e-02 +9.993088e-01 -1.383053e-02 +6.911660e-04 +1.383053e-02
2.317395e+08 +7.049936e-04 +1.432127e-02 +9.992950e-01 -1.432127e-02 +9.992950e-01 -1.432127e-02 +7.049936e-04 +1.432127e-02
2.398833e+08 +7.198099e-04 +1.482907e-02 +9.992802e-01 -1.482907e-02 +9.992802e-01 -1.482907e-02 +7.198099e-04 +1.482907e-02
2.483133e+08 +7.356853e-04 +1.535453e-02 +9.992643e-01 -1.535453e-02 +9.992643e-01 -1.535453e-02 +7.356853e-04 +1.535453e-02
2.570396e+08 +7.526957e-04 +1.589828e-02 +9.992473e-01 -1.589828e-02 +9.992473e-01 -1.589828e-02 +7.526957e-04 +1.589828e-02
2.660725e+08 +7.709220e-04 +1.646095e-02 +9.992291e-01 -1.646095e-02 +9.992291e-01 -1.646095e-02 +7.709220e-04 +1.646095e-02
2.754229e+08 +7.904511e-04 +1.704322e-02 +9.992095e-01 -1.704322e-02 +9.992095e-01 -1.704322e-02 +7.904511e-04 +1.704322e-02
2.851018e+08 +8.113761e-04 +1.764577e-02 +9.991886e-01 -1.764577e-02 +9.991886e-01 -1.764577e-02 +8.113761e-04 +1.764577e-02
2.951209e+08 +8.337968e-04 +1.826932e-02 +9.991662e-01 -1.826932e-02 +9.991662e-01 -1.826932e-02 +8.337968e-04 +1.826932e-02
3.054921e+08 +8.578198e-04 +1.891461e-02 +9.991422e-01 -1.891461e-02 +9.991422e-01 -1.891461e-02 +8.578198e-04 +1.891461e-02
3.162278e+08 +8.835597e-04 +1.958240e-02 +9.991164e-01 -1.958240e-02 +9.991164e-01 -1.958240e-02 +8.835597e-04 +1.958240e-02
3.273407e+08 +9.111391e-04 +2.027348e-02 +9.990889e-01 -2.027348e-02 +9.990889e-01 -2.027348e-02 +9.111391e-04 +2.027348e-02
3.388442e+08 +9.406892e-04 +2.098867e-02 +9.990593e-01 -2.098867e-02 +9.990593e-01 -2.098867e-02 +9.406892e-04 +2.098867e-02
3.507519e+08 +9.723508e-04 +2.172881e-02 +9.990276e-01 -2.172881e-02 +9.990276e-01 -2.172881e-02 +9.723508e-04 +2.172881e-02
3.630781e+08 +1.006275e-03 +2.249477e-02 +9.989937e-01 -2.249477e-02 +9.989937e-01 -2.249477e-02 +1.006275e-03 +2.249477e-02
3.758374e+08 +1.042622e-03 +2.328747e-02 +9.989574e-01 -2.328747e-02 +9.989574e-01 -2.328747e-02 +1.042622e-03 +2.328747e-02
3.890451e+08 +1.081566e-03 +2.410782e-02 +9.989184e-01 -2.410782e-02 +9.989184e-01 -2.410782e-02 +1.081566e-03 +2.410782e-02
4.027170e+08 +1.123292e-03 +2.495680e-02 +9.988767e-01 -2.495680e-02 +9.988767e-01 -2.495680e-02 +1.123292e-03 +2.495680e-02
4.168694e+08 +1.167999e-03 +2.583541e-02 +9.988320e-01 -2.583541e-02 +9.988320e-01 -2.583541e-02 +1.167999e-03 +2.583541e-02
4.315191e+08 +1.215898e-03 +2.674467e-02 +9.987841e-01 -2.674467e-02 +9.987841e-01 -2.674467e-02 +1.215898e-03 +2.674467e-02
4.466836e+08 +1.267218e-03 +2.768566e-02 +9.987328e-01 -2.768566e-02 +9.987328e-01 -2.768566e-02 +1.267218e-03 +2.768566e-02
4.623810e+08 +1.322203e-03 +2.865947e-02 +9.986778e-01 -2.865947e-02 +9.986778e-01 -2.865947e-02 +1.322203e-03 +2.865947e-02
4.786301e+08 +1.381113e-03 +2.966725e-02 +9.986189e-01 -2.966725e-02 +9.986189e-01 -2.966725e-02 +1.381113e-03 +2.966725e-02
4.954502e+08 +1.444229e-03 +3.071017e-02 +9.985558e-01 -3.071017e-02 +9.985558e-01 -3.071017e-02 +1.444229e-03 +3.071017e-02
5.128614e+08 +1.511850e-03 +3.178946e-02 +9.984882e-01 -3.178946e-02 +9.984882e-01 -3.178946e-02 +1.511850e-03 +3.178946e-02
5.308844e+08 +1.584297e-03 +3.290636e-02 +9.984157e-01 -3.290636e-02 +9.984157e-01 -3.290636e-02 +1.584297e-03 +3.290636e-02
5.495409e+08 +1.661913e-03 +3.406218e-02 +9.983381e-01 -3.406218e-02 +9.983381e-01 -3.406218e-02 +1.661913e-03 +3.406218e-02
5.688529e+08 +1.745068e-03 +3.525826e-02 +9.982549e-01 -3.525826e-02 +9.982549e-01 -3.525826e-02 +1.745068e-03 +3.525826e-02
5.888437e+08 +1.834154e-03 +3.649598e-02 +9.981658e-01 -3.649598e-02 +9.981658e-01 -3.649598e-02 +1.834154e-03 +3.649598e-02
6.095369e+08 +1.929594e-03 +3.777678e-02 +9.980704e-01 -3.777678e-02 +9.980704e-01 -3.777678e-02 +1.929594e-03 +3.777678e-02
6.309573e+08 +2.031840e-03 +3.910213e-02 +9.979682e-01 -3.910213e-02 +9.979682e-01 -3.910213e-02 +2.031840e-03 +3.910213e-02
6.531306e+08 +2.141374e-03 +4.047356e-02 +9.978586e-01 -4.047356e-02 +9.978586e-01 -4.047356e-02 +2.141374e-03 +4.047356e-02
6.760830e+08 +2.258716e-03 +4.189264e-02 +9.977413e-01 -4.189264e-02 +9.977413e-01 -4.189264e-02 +2.258716e-03 +4.189264e-02
6.998420e+08 +2.384420e-03 +4.336099e-02 +9.976156e-01 -4.336099e-02 +9.976156e-01 -4.336099e-02 +2.384420e-03 +4.336099e-02
7.244360e+08 +2.519078e-03 +4.488030e-02 +9.974809e-01 -4.488030e-02 +9.974809e-01 -4.488030e-02 +2.519078e-03 +4.488030e-02
7.498942e+08 +2.663327e-03 +4.645229e-02 +9.973367e-01 -4.645229e-02 +9.973367e-01 -4.645229e-02 +2.663327e-03 +4.645229e-02
7.762471e+08 +2.817847e-03 +4.807873e-02 +9.971822e-01 -4.807873e-02 +9.971822e-01 -4.807873e-02 +2.817847e-03 +4.807873e-02
8.035261e+08 +2.983364e-03 +4.976148e-02 +9.970166e-01 -4.976148e-02 +9.970166e-01 -4.976148e-02 +2.983364e-03 +4.976148e-02
8.317638e+08 +3.160658e-03 +5.150241e-02 +9.968393e-01 -5.150241e-02 +9.968393e-01 -5.150241e-02 +3.160658e-03 +5.150241e-02
8.609938e+08 +3.350562e-03 +5.330347e-02 +9.966494e-01 -5.330347e-02 +9.966494e-01 -5.330347e-02 +3.350562e-03 +5.330347e-02
8.912509e+08 +3.553968e-03 +5.516668e-02 +9.964460e-01 -5.516668e-02 +9.964460e-01 -5.516668e-02 +3.553968e-03 +5.516668e-02
9.225714e+08 +3.771828e-03 +5.709410e-02 +9.962282e-01 -5.709410e-02 +9.962282e-01 -5.709410e-02 +3.771828e-03 +5.709410e-02
9.549926e+08 +4.005165e-03 +5.908786e-02 +9.959948e-01 -5.908786e-02 +9.959948e-01 -5.908786e-02 +4.005165e-03 +5.908786e-02
9.885531e+08 +4.255068e-03 +6.115013e-02 +9.957449e-01 -6.115013e-02 +9.957449e-01 -6.115013e-02 +4.255068e-03 +6.115013e-02
1.023293e+09 +4.522705e-03 +6.328317e-02 +9.954773e-01 -6.328317e-02 +9.954773e-01 -6.328317e-02 +4.522705e-03 +6.328317e-02
1.059254e+09 +4.809323e-03 +6.548929e-02 +9.951907e-01 -6.548929e-02 +9.951907e-01 -6.548929e-02 +4.809323e-03 +6.548929e-02
1.096478e+09 +5.116257e-03 +6.777085e-02 +9.948837e-01 -6.777085e-02 +9.948837e-01 -6.777085e-02 +5.116257e-03 +6.777085e-02
1.135011e+09 +5.444933e-03 +7.013028e-02 +9.945551e-01 -7.013028e-02 +9.945551e-01 -7.013028e-02 +5.444933e-03 +7.013028e-02
1.174898e+09 +5.796875e-03 +7.257009e-02 +9.942031e-01 -7.257009e-02 +9.942031e-01 -7.257009e-02 +5.796875e-03 +7.257009e-02
1.216186e+09 +6.173710e-03 +7.509281e-02 +9.938263e-01 -7.509281e-02 +9.938263e-01 -7.509281e-02 +6.173710e-03 +7.509281e-02
1.258925e+09 +6.577180e-03 +7.770108e-02 +9.934228e-01 -7.770108e-02 +9.934228e-01 -7.770108e-02 +6.577180e-03 +7.770108e-02
1.303167e+09 +7.009143e-03 +8.039756e-02 +9.929909e-01 -8.039756e-02 +9.929909e-01 -8.039756e-02 +7.009143e-03 +8.039756e-02
1.348963e+09 +7.471582e-03 +8.318498e-02 +9.925284e-01 -8.318498e-02 +9.925284e-01 -8.318498e-02 +7.471582e-03 +8.318498e-02
1.396368e+09 +7.966617e-03 +8.606614e-02 +9.920334e-01 -8.606614e-02 +9.920334e-01 -8.606614e-02 +7.966617e-03 +8.606614e-02
1.445440e+09 +8.496508e-03 +8.904389e-02 +9.915035e-01 -8.904389e-02 +9.915035e-01 -8.904389e-02 +8.496508e-03 +8.904389e-02
1.496236e+09 +9.063669e-03 +9.212111e-02 +9.909363e-01 -9.212111e-02 +9.909363e-01 -9.212111e-02 +9.063669e-03 +9.212111e-02
1.548817e+09 +9.670674e-03 +9.530076e-02 +9.903293e-01 -9.530076e-02 +9.903293e-01 -9.530076e-02 +9.670674e-03 +9.530076e-02
1.603245e+09 +1.032027e-02 +9.858583e-02 +9.896797e-01 -9.858583e-02 +9.896797e-01 -9.858583e-02 +1.032027e-02 +9.858583e-02
1.659587e+09 +1.101537e-02 +1.019794e-01 +9.889846e-01 -1.019794e-01 +9.889846e-01 -1.019794e-01 +1.101537e-02 +1.019794e-01
1.717908e+09 +1.175911e-02 +1.054844e-01 +9.882409e-01 -1.054844e-01 +9.882409e-01 -1.054844e-01 +1.175911e-02 +1.054844e-01
1.778279e+09 +1.255480e-02 +1.091041e-01 +9.874452e-01 -1.091041e-01 +9.874452e-01 -1.091041e-01 +1.255480e-02 +1.091041e-01
1.840772e+09 +1.340597e-02 +1.128415e-01 +9.865940e-01 -1.128415e-01 +9.865940e-01 -1.128415e-01 +1.340597e-02 +1.128415e-01
1.905461e+09 +1.431639e-02 +1.166998e-01 +9.856836e-01 -1.166998e-01 +9.856836e-01 -1.166998e-01 +1.431639e-02 +1.166998e-01
1.972423e+09 +1.529006e-02 +1.206821e-01 +9.847099e-01 -1.206821e-01 +9.847099e-01 -1.206821e-01 +1.529006e-02 +1.206821e-01
2.041738e+09 +1.633124e-02 +1.247916e-01 +9.836688e-01 -1.247916e-01 +9.836688e-01 -1.247916e-01 +1.633124e-02 +1.247916e-01
2.113489e+09 +1.744443e-02 +1.290314e-01 +9.825556e-01 -1.290314e-01 +9.825556e-01 -1.290314e-01 +1.744443e-02 +1.290314e-01
2.187762e+09 +1.863446e-02 +1.334046e-01 +9.813655e-01 -1.334046e-01 +9.813655e-01 -1.334046e-01 +1.863446e-02 +1.334046e-01
2.264644e+09 +1.990639e-02 +1.379142e-01 +9.800936e-01 -1.379142e-01 +9.800936e-01 -1.379142e-01 +1.990639e-02 +1.379142e-01
2.344229e+09 +2.126564e-02 +1.425633e-01 +9.787344e-01 -1.425633e-01 +9.787344e-01 -1.425633e-01 +2.126564e-02 +1.425633e-01
2.426610e+09 +2.271792e-02 +1.473547e-01 +9.772821e-01 -1.473547e-01 +9.772821e-01 -1.473547e-01 +2.271792e-02 +1.473547e-01
2.511886e+09 +2.426930e-02 +1.522914e-01 +9.757307e-01 -1.522914e-01 +9.757307e-01 -1.522914e-01 +2.426930e-02 +1.522914e-01
2.600160e+09 +2.592617e-02 +1.573760e-01 +9.740738e-01 -1.573760e-01 +9.740738e-01 -1.573760e-01 +2.592617e-02 +1.573760e-01
2.691535e+09 +2.769530e-02 +1.626111e-01 +9.723047e-01 -1.626111e-01 +9.723047e-01 -1.626111e-01 +2.769530e-02 +1.626111e-01
2.786121e+09 +2.958384e-02 +1.679990e-01 +9.704162e-01 -1.679990e-01 +9.704162e-01 -1.679990e-01 +2.958384e-02 +1.679990e-01
2.884032e+09 +3.159933e-02 +1.735421e-01 +9.684007e-01 -1.735421e-01 +9.684007e-01 -1.735421e-01 +3.159933e-02 +1.735421e-01
2.985383e+09 +3.374969e-02 +1.792422e-01 +9.662503e-01 -1.792422e-01 +9.662503e-01 -1.792422e-01 +3.374969e-02 +1.792422e-01
3.090295e+09 +3.604327e-02 +1.851011e-01 +9.639567e-01 -1.851011e-01 +9.639567e-01 -1.851011e-01 +3.604327e-02 +1.851011e-01
3.198895e+09 +3.848883e-02 +1.911202e-01 +9.615112e-01 -1.911202e-01 +9.615112e-01 -1.911202e-01 +3.848883e-02 +1.911202e-01
3.311311e+09 +4.109556e-02 +1.973005e-01 +9.589044e-01 -1.973005e-01 +9.589044e-01 -1.973005e-01 +4.109556e-02 +1.973005e-01
3.427678e+09 +4.387308e-02 +2.036428e-01 +9.561269e-01 -2.036428e-01 +9.561269e-01 -2.036428e-01 +4.387308e-02 +2.036428e-01
3.548134e+09 +4.683145e-02 +2.101474e-01 +9.531686e-01 -2.101474e-01 +9.531686e-01 -2.101474e-01 +4.683145e-02 +2.101474e-01
3.672823e+09 +4.998114e-02 +2.168139e-01 +9.500189e-01 -2.168139e-01 +9.500189e-01 -2.168139e-01 +4.998114e-02 +2.168139e-01
3.801894e+09 +5.333308e-02 +2.236416e-01 +9.466669e-01 -2.236416e-01 +9.466669e-01 -2.236416e-01 +5.333308e-02 +2.236416e-01
3.935501e+09 +5.689859e-02 +2.306292e-01 +9.431014e-01 -2.306292e-01 +9.431014e-01 -2.306292e-01 +5.689859e-02 +2.306292e-01
4.073803e+09 +6.068942e-02 +2.377747e-01 +9.393106e-01 -2.377747e-01 +9.393106e-01 -2.377747e-01 +6.068942e-02 +2.377747e-01
4.216965e+09 +6.471769e-02 +2.450753e-01 +9.352823e-01 -2.450753e-01 +9.352823e-01 -2.450753e-01 +6.471769e-02 +2.450753e-01
4.365158e+09 +6.899589e-02 +2.525276e-01 +9.310041e-01 -2.525276e-01 +9.310041e-01 -2.525276e-01 +6.899589e-02 +2.525276e-01
4.518559e+09 +7.353683e-02 +2.601272e-01 +9.264632e-01 -2.601272e-01 +9.264632e-01 -2.601272e-01 +7.353683e-02 +2.601272e-01
4.677351e+09 +7.835364e-02 +2.678689e-01 +9.216464e-01 -2.678689e-01 +9.216464e-01 -2.678689e-01 +7.835364e-02 +2.678689e-01
4.841724e+09 +8.345966e-02 +2.757464e-01 +9.165403e-01 -2.757464e-01 +9.165403e-01 -2.757464e-01 +8.345966e-02 +2.757464e-01
5.011872e+09 +8.886843e-02 +2.837525e-01 +9.111316e-01 -2.837525e-01 +9.111316e-01 -2.837525e-01 +8.886843e-02 +2.837525e-01
5.188000e+09 +9.459364e-02 +2.918788e-01 +9.054064e-01 -2.918788e-01 +9.054064e-01 -2.918788e-01 +9.459364e-02 +2.918788e-01
5.370318e+09 +1.006490e-01 +3.001155e-01 +8.993510e-01 -3.001155e-01 +8.993510e-01 -3.001155e-01 +1.006490e-01 +3.001155e-01
5.559043e+09 +1.070482e-01 +3.084519e-01 +8.929518e-01 -3.084519e-01 +8.929518e-01 -3.084519e-01 +1.070482e-01 +3.084519e-01
5.754399e+09 +1.138047e-01 +3.168759e-01 +8.861953e-01 -3.168759e-01 +8.861953e-01 -3.168759e-01 +1.138047e-01 +3.168759e-01
5.956621e+09 +1.209319e-01 +3.253737e-01 +8.790681e-01 -3.253737e-01 +8.790681e-01 -3.253737e-01 +1.209319e-01 +3.253737e-01
6.165950e+09 +1.284427e-01 +3.339305e-01 +8.715573e-01 -3.339305e-01 +8.715573e-01 -3.339305e-01 +1.284427e-01 +3.339305e-01
6.382635e+09 +1.363495e-01 +3.425298e-01 +8.636505e-01 -3.425298e-01 +8.636505e-01 -3.425298e-01 +1.363495e-01 +3.425298e-01
6.606934e+09 +1.446641e-01 +3.511537e-01 +8.553359e-01 -3.511537e-01 +8.553359e-01 -3.511537e-01 +1.446641e-01 +3.511537e-01
6.839116e+09 +1.533975e-01 +3.597827e-01 +8.466025e-01 -3.597827e-01 +8.466025e-01 -3.597827e-01 +1.533975e-01 +3.597827e-01
7.079458e+09 +1.625597e-01 +3.683959e-01 +8.374403e-01 -3.683959e-01 +8.374403e-01 -3.683959e-01 +1.625597e-01 +3.683959e-01
7.328245e+09 +1.721596e-01 +3.769707e-01 +8.278404e-01 -3.769707e-01 +8.278404e-01 -3.769707e-01 +1.721596e-01 +3.769707e-01
7.585776e+09 +1.822047e-01 +3.854834e-01 +8.177953e-01 -3.854834e-01 +8.177953e-01 -3.854834e-01 +1.822047e-01 +3.854834e-01
7.852356e+09 +1.927013e-01 +3.939087e-01 +8.072987e-01 -3.939087e-01 +8.072987e-01 -3.939087e-01 +1.927013e-01 +3.939087e-01
8.128305e+09 +2.036535e-01 +4.022198e-01 +7.963465e-01 -4.022198e-01 +7.963465e-01 -4.022198e-01 +2.036535e-01 +4.022198e-01
8.413951e+09 +2.150640e-01 +4.103891e-01 +7.849360e-01 -4.103891e-01 +7.849360e-01 -4.103891e-01 +2.150640e-01 +4.103891e-01
8.709636e+09 +2.269331e-01 +4.183875e-01 +7.730669e-01 -4.183875e-01 +7.730669e-01 -4.183875e-01 +2.269331e-01 +4.183875e-01
9.015711e+09 +2.392590e-01 +4.261854e-01 +7.607410e-01 -4.261854e-01 +7.607410e-01 -4.261854e-01 +2.392590e-01 +4.261854e-01
9.332543e+09 +2.520376e-01 +4.337521e-01 +7.479624e-01 -4.337521e-01 +7.479624e-01 -4.337521e-01 +2.520376e-01 +4.337521e-01
9.660509e+09 +2.652621e-01 +4.410566e-01 +7.347379e-01 -4.410566e-01 +7.347379e-01 -4.410566e-01 +2.652621e-01 +4.410566e-01
1.000000e+10 +2.789230e-01 +4.480676e-01 +7.210770e-01 -4.480676e-01 +7.210770e-01 -4.480676e-01 +2.789230e-01 +4.480676e-01
