! Touchstone 2-port S-parameters  (series-through model)
! Part: GRM188R71C104KA01
! Generated: 2026-06-14 22:47 UTC  by s2p tool
! Reference impedance: 50.0 Ohm
! ESL computed from case 0603: 0.700 nH; SRF computed = 19.02 MHz [GEOMETRY ESTIMATE]
! ESR unknown -> default 10 mOhm [PHYSICS ESTIMATE, low confidence]
! ESTIMATED / behavioral model - NOT manufacturer-measured data.
# Hz S RI R 50
! freq        ReS11      ImS11      ReS21      ImS21      ReS12      ImS12      ReS22      ImS22
1.000000e+04 +7.169444e-01 -4.504518e-01 +2.830556e-01 +4.504518e-01 +2.830556e-01 +4.504518e-01 +7.169444e-01 -4.504518e-01
1.035142e+04 +7.027192e-01 -4.570287e-01 +2.972808e-01 +4.570287e-01 +2.972808e-01 +4.570287e-01 +7.027192e-01 -4.570287e-01
1.071519e+04 +6.880901e-01 -4.632396e-01 +3.119099e-01 +4.632396e-01 +3.119099e-01 +4.632396e-01 +6.880901e-01 -4.632396e-01
1.109175e+04 +6.730762e-01 -4.690543e-01 +3.269238e-01 +4.690543e-01 +3.269238e-01 +4.690543e-01 +6.730762e-01 -4.690543e-01
1.148154e+04 +6.576991e-01 -4.744437e-01 +3.423009e-01 +4.744437e-01 +3.423009e-01 +4.744437e-01 +6.576991e-01 -4.744437e-01
1.188502e+04 +6.419834e-01 -4.793797e-01 +3.580166e-01 +4.793797e-01 +3.580166e-01 +4.793797e-01 +6.419834e-01 -4.793797e-01
1.230269e+04 +6.259567e-01 -4.838362e-01 +3.740433e-01 +4.838362e-01 +3.740433e-01 +4.838362e-01 +6.259567e-01 -4.838362e-01
1.273503e+04 +6.096488e-01 -4.877890e-01 +3.903512e-01 +4.877890e-01 +3.903512e-01 +4.877890e-01 +6.096488e-01 -4.877890e-01
1.318257e+04 +5.930922e-01 -4.912160e-01 +4.069078e-01 +4.912160e-01 +4.069078e-01 +4.912160e-01 +5.930922e-01 -4.912160e-01
1.364583e+04 +5.763215e-01 -4.940978e-01 +4.236785e-01 +4.940978e-01 +4.236785e-01 +4.940978e-01 +5.763215e-01 -4.940978e-01
1.412538e+04 +5.593731e-01 -4.964179e-01 +4.406269e-01 +4.964179e-01 +4.406269e-01 +4.964179e-01 +5.593731e-01 -4.964179e-01
1.462177e+04 +5.422853e-01 -4.981628e-01 +4.577147e-01 +4.981628e-01 +4.577147e-01 +4.981628e-01 +5.422853e-01 -4.981628e-01
1.513561e+04 +5.250975e-01 -4.993222e-01 +4.749025e-01 +4.993222e-01 +4.749025e-01 +4.993222e-01 +5.250975e-01 -4.993222e-01
1.566751e+04 +5.078502e-01 -4.998892e-01 +4.921498e-01 +4.998892e-01 +4.921498e-01 +4.998892e-01 +5.078502e-01 -4.998892e-01
1.621810e+04 +4.905843e-01 -4.998604e-01 +5.094157e-01 +4.998604e-01 +5.094157e-01 +4.998604e-01 +4.905843e-01 -4.998604e-01
1.678804e+04 +4.733409e-01 -4.992360e-01 +5.266591e-01 +4.992360e-01 +5.266591e-01 +4.992360e-01 +4.733409e-01 -4.992360e-01
1.737801e+04 +4.561611e-01 -4.980198e-01 +5.438389e-01 +4.980198e-01 +5.438389e-01 +4.980198e-01 +4.561611e-01 -4.980198e-01
1.798871e+04 +4.390850e-01 -4.962190e-01 +5.609150e-01 +4.962190e-01 +5.609150e-01 +4.962190e-01 +4.390850e-01 -4.962190e-01
1.862087e+04 +4.221521e-01 -4.938440e-01 +5.778479e-01 +4.938440e-01 +5.778479e-01 +4.938440e-01 +4.221521e-01 -4.938440e-01
1.927525e+04 +4.054004e-01 -4.909088e-01 +5.945996e-01 +4.909088e-01 +5.945996e-01 +4.909088e-01 +4.054004e-01 -4.909088e-01
1.995262e+04 +3.888663e-01 -4.874302e-01 +6.111337e-01 +4.874302e-01 +6.111337e-01 +4.874302e-01 +3.888663e-01 -4.874302e-01
2.065380e+04 +3.725842e-01 -4.834278e-01 +6.274158e-01 +4.834278e-01 +6.274158e-01 +4.834278e-01 +3.725842e-01 -4.834278e-01
2.137962e+04 +3.565862e-01 -4.789239e-01 +6.434138e-01 +4.789239e-01 +6.434138e-01 +4.789239e-01 +3.565862e-01 -4.789239e-01
2.213095e+04 +3.409020e-01 -4.739430e-01 +6.590980e-01 +4.739430e-01 +6.590980e-01 +4.739430e-01 +3.409020e-01 -4.739430e-01
2.290868e+04 +3.255589e-01 -4.685113e-01 +6.744411e-01 +4.685113e-01 +6.744411e-01 +4.685113e-01 +3.255589e-01 -4.685113e-01
2.371374e+04 +3.105811e-01 -4.626571e-01 +6.894189e-01 +4.626571e-01 +6.894189e-01 +4.626571e-01 +3.105811e-01 -4.626571e-01
2.454709e+04 +2.959902e-01 -4.564095e-01 +7.040098e-01 +4.564095e-01 +7.040098e-01 +4.564095e-01 +2.959902e-01 -4.564095e-01
2.540973e+04 +2.818048e-01 -4.497989e-01 +7.181952e-01 +4.497989e-01 +7.181952e-01 +4.497989e-01 +2.818048e-01 -4.497989e-01
2.630268e+04 +2.680407e-01 -4.428563e-01 +7.319593e-01 +4.428563e-01 +7.319593e-01 +4.428563e-01 +2.680407e-01 -4.428563e-01
2.722701e+04 +2.547106e-01 -4.356129e-01 +7.452894e-01 +4.356129e-01 +7.452894e-01 +4.356129e-01 +2.547106e-01 -4.356129e-01
2.818383e+04 +2.418247e-01 -4.281001e-01 +7.581753e-01 +4.281001e-01 +7.581753e-01 +4.281001e-01 +2.418247e-01 -4.281001e-01
2.917427e+04 +2.293904e-01 -4.203491e-01 +7.706096e-01 +4.203491e-01 +7.706096e-01 +4.203491e-01 +2.293904e-01 -4.203491e-01
3.019952e+04 +2.174123e-01 -4.123905e-01 +7.825877e-01 +4.123905e-01 +7.825877e-01 +4.123905e-01 +2.174123e-01 -4.123905e-01
3.126079e+04 +2.058928e-01 -4.042543e-01 +7.941072e-01 +4.042543e-01 +7.941072e-01 +4.042543e-01 +2.058928e-01 -4.042543e-01
3.235937e+04 +1.948320e-01 -3.959697e-01 +8.051680e-01 +3.959697e-01 +8.051680e-01 +3.959697e-01 +1.948320e-01 -3.959697e-01
3.349654e+04 +1.842279e-01 -3.875647e-01 +8.157721e-01 +3.875647e-01 +8.157721e-01 +3.875647e-01 +1.842279e-01 -3.875647e-01
3.467369e+04 +1.740764e-01 -3.790663e-01 +8.259236e-01 +3.790663e-01 +8.259236e-01 +3.790663e-01 +1.740764e-01 -3.790663e-01
3.589219e+04 +1.643719e-01 -3.705000e-01 +8.356281e-01 +3.705000e-01 +8.356281e-01 +3.705000e-01 +1.643719e-01 -3.705000e-01
3.715352e+04 +1.551071e-01 -3.618901e-01 +8.448929e-01 +3.618901e-01 +8.448929e-01 +3.618901e-01 +1.551071e-01 -3.618901e-01
3.845918e+04 +1.462735e-01 -3.532594e-01 +8.537265e-01 +3.532594e-01 +8.537265e-01 +3.532594e-01 +1.462735e-01 -3.532594e-01
3.981072e+04 +1.378612e-01 -3.446292e-01 +8.621388e-01 +3.446292e-01 +8.621388e-01 +3.446292e-01 +1.378612e-01 -3.446292e-01
4.120975e+04 +1.298594e-01 -3.360192e-01 +8.701406e-01 +3.360192e-01 +8.701406e-01 +3.360192e-01 +1.298594e-01 -3.360192e-01
4.265795e+04 +1.222565e-01 -3.274478e-01 +8.777435e-01 +3.274478e-01 +8.777435e-01 +3.274478e-01 +1.222565e-01 -3.274478e-01
4.415704e+04 +1.150403e-01 -3.189318e-01 +8.849597e-01 +3.189318e-01 +8.849597e-01 +3.189318e-01 +1.150403e-01 -3.189318e-01
4.570882e+04 +1.081978e-01 -3.104865e-01 +8.918022e-01 +3.104865e-01 +8.918022e-01 +3.104865e-01 +1.081978e-01 -3.104865e-01
4.731513e+04 +1.017159e-01 -3.021257e-01 +8.982841e-01 +3.021257e-01 +8.982841e-01 +3.021257e-01 +1.017159e-01 -3.021257e-01
4.897788e+04 +9.558106e-02 -2.938620e-01 +9.044189e-01 +2.938620e-01 +9.044189e-01 +2.938620e-01 +9.558106e-02 -2.938620e-01
5.069907e+04 +8.977962e-02 -2.857065e-01 +9.102204e-01 +2.857065e-01 +9.102204e-01 +2.857065e-01 +8.977962e-02 -2.857065e-01
5.248075e+04 +8.429785e-02 -2.776692e-01 +9.157022e-01 +2.776692e-01 +9.157022e-01 +2.776692e-01 +8.429785e-02 -2.776692e-01
5.432503e+04 +7.912206e-02 -2.697586e-01 +9.208779e-01 +2.697586e-01 +9.208779e-01 +2.697586e-01 +7.912206e-02 -2.697586e-01
5.623413e+04 +7.423867e-02 -2.619823e-01 +9.257613e-01 +2.619823e-01 +9.257613e-01 +2.619823e-01 +7.423867e-02 -2.619823e-01
5.821032e+04 +6.963427e-02 -2.543468e-01 +9.303657e-01 +2.543468e-01 +9.303657e-01 +2.543468e-01 +6.963427e-02 -2.543468e-01
6.025596e+04 +6.529569e-02 -2.468577e-01 +9.347043e-01 +2.468577e-01 +9.347043e-01 +2.468577e-01 +6.529569e-02 -2.468577e-01
6.237348e+04 +6.121002e-02 -2.395193e-01 +9.387900e-01 +2.395193e-01 +9.387900e-01 +2.395193e-01 +6.121002e-02 -2.395193e-01
6.456542e+04 +5.736470e-02 -2.323354e-01 +9.426353e-01 +2.323354e-01 +9.426353e-01 +2.323354e-01 +5.736470e-02 -2.323354e-01
6.683439e+04 +5.374752e-02 -2.253089e-01 +9.462525e-01 +2.253089e-01 +9.462525e-01 +2.253089e-01 +5.374752e-02 -2.253089e-01
6.918310e+04 +5.034663e-02 -2.184420e-01 +9.496534e-01 +2.184420e-01 +9.496534e-01 +2.184420e-01 +5.034663e-02 -2.184420e-01
7.161434e+04 +4.715061e-02 -2.117361e-01 +9.528494e-01 +2.117361e-01 +9.528494e-01 +2.117361e-01 +4.715061e-02 -2.117361e-01
7.413102e+04 +4.414844e-02 -2.051921e-01 +9.558516e-01 +2.051921e-01 +9.558516e-01 +2.051921e-01 +4.414844e-02 -2.051921e-01
7.673615e+04 +4.132954e-02 -1.988103e-01 +9.586705e-01 +1.988103e-01 +9.586705e-01 +1.988103e-01 +4.132954e-02 -1.988103e-01
7.943282e+04 +3.868375e-02 -1.925907e-01 +9.613163e-01 +1.925907e-01 +9.613163e-01 +1.925907e-01 +3.868375e-02 -1.925907e-01
8.222426e+04 +3.620134e-02 -1.865327e-01 +9.637987e-01 +1.865327e-01 +9.637987e-01 +1.865327e-01 +3.620134e-02 -1.865327e-01
8.511380e+04 +3.387304e-02 -1.806351e-01 +9.661270e-01 +1.806351e-01 +9.661270e-01 +1.806351e-01 +3.387304e-02 -1.806351e-01
8.810489e+04 +3.168996e-02 -1.748968e-01 +9.683100e-01 +1.748968e-01 +9.683100e-01 +1.748968e-01 +3.168996e-02 -1.748968e-01
9.120108e+04 +2.964368e-02 -1.693160e-01 +9.703563e-01 +1.693160e-01 +9.703563e-01 +1.693160e-01 +2.964368e-02 -1.693160e-01
9.440609e+04 +2.772616e-02 -1.638908e-01 +9.722738e-01 +1.638908e-01 +9.722738e-01 +1.638908e-01 +2.772616e-02 -1.638908e-01
9.772372e+04 +2.592977e-02 -1.586191e-01 +9.740702e-01 +1.586191e-01 +9.740702e-01 +1.586191e-01 +2.592977e-02 -1.586191e-01
1.011579e+05 +2.424729e-02 -1.534985e-01 +9.757527e-01 +1.534985e-01 +9.757527e-01 +1.534985e-01 +2.424729e-02 -1.534985e-01
1.047129e+05 +2.267186e-02 -1.485265e-01 +9.773281e-01 +1.485265e-01 +9.773281e-01 +1.485265e-01 +2.267186e-02 -1.485265e-01
1.083927e+05 +2.119698e-02 -1.437004e-01 +9.788030e-01 +1.437004e-01 +9.788030e-01 +1.437004e-01 +2.119698e-02 -1.437004e-01
1.122018e+05 +1.981652e-02 -1.390173e-01 +9.801835e-01 +1.390173e-01 +9.801835e-01 +1.390173e-01 +1.981652e-02 -1.390173e-01
1.161449e+05 +1.852469e-02 -1.344745e-01 +9.814753e-01 +1.344745e-01 +9.814753e-01 +1.344745e-01 +1.852469e-02 -1.344745e-01
1.202264e+05 +1.731600e-02 -1.300688e-01 +9.826840e-01 +1.300688e-01 +9.826840e-01 +1.300688e-01 +1.731600e-02 -1.300688e-01
1.244515e+05 +1.618530e-02 -1.257973e-01 +9.838147e-01 +1.257973e-01 +9.838147e-01 +1.257973e-01 +1.618530e-02 -1.257973e-01
1.288250e+05 +1.512772e-02 -1.216569e-01 +9.848723e-01 +1.216569e-01 +9.848723e-01 +1.216569e-01 +1.512772e-02 -1.216569e-01
1.333521e+05 +1.413868e-02 -1.176444e-01 +9.858613e-01 +1.176444e-01 +9.858613e-01 +1.176444e-01 +1.413868e-02 -1.176444e-01
1.380384e+05 +1.321386e-02 -1.137567e-01 +9.867861e-01 +1.137567e-01 +9.867861e-01 +1.137567e-01 +1.321386e-02 -1.137567e-01
1.428894e+05 +1.234919e-02 -1.099906e-01 +9.876508e-01 +1.099906e-01 +9.876508e-01 +1.099906e-01 +1.234919e-02 -1.099906e-01
1.479108e+05 +1.154087e-02 -1.063431e-01 +9.884591e-01 +1.063431e-01 +9.884591e-01 +1.063431e-01 +1.154087e-02 -1.063431e-01
1.531087e+05 +1.078531e-02 -1.028109e-01 +9.892147e-01 +1.028109e-01 +9.892147e-01 +1.028109e-01 +1.078531e-02 -1.028109e-01
1.584893e+05 +1.007914e-02 -9.939099e-02 +9.899209e-01 +9.939099e-02 +9.899209e-01 +9.939099e-02 +1.007914e-02 -9.939099e-02
1.640590e+05 +9.419192e-03 -9.608029e-02 +9.905808e-01 +9.608029e-02 +9.905808e-01 +9.608029e-02 +9.419192e-03 -9.608029e-02
1.698244e+05 +8.802497e-03 -9.287574e-02 +9.911975e-01 +9.287574e-02 +9.911975e-01 +9.287574e-02 +8.802497e-03 -9.287574e-02
1.757924e+05 +8.226271e-03 -8.977434e-02 +9.917737e-01 +8.977434e-02 +9.917737e-01 +8.977434e-02 +8.226271e-03 -8.977434e-02
1.819701e+05 +7.687901e-03 -8.677313e-02 +9.923121e-01 +8.677313e-02 +9.923121e-01 +8.677313e-02 +7.687901e-03 -8.677313e-02
1.883649e+05 +7.184937e-03 -8.386920e-02 +9.928151e-01 +8.386920e-02 +9.928151e-01 +8.386920e-02 +7.184937e-03 -8.386920e-02
1.949845e+05 +6.715083e-03 -8.105969e-02 +9.932849e-01 +8.105969e-02 +9.932849e-01 +8.105969e-02 +6.715083e-03 -8.105969e-02
2.018366e+05 +6.276189e-03 -7.834179e-02 +9.937238e-01 +7.834179e-02 +9.937238e-01 +7.834179e-02 +6.276189e-03 -7.834179e-02
2.089296e+05 +5.866240e-03 -7.571277e-02 +9.941338e-01 +7.571277e-02 +9.941338e-01 +7.571277e-02 +5.866240e-03 -7.571277e-02
2.162719e+05 +5.483347e-03 -7.316993e-02 +9.945167e-01 +7.316993e-02 +9.945167e-01 +7.316993e-02 +5.483347e-03 -7.316993e-02
2.238721e+05 +5.125745e-03 -7.071064e-02 +9.948743e-01 +7.071064e-02 +9.948743e-01 +7.071064e-02 +5.125745e-03 -7.071064e-02
2.317395e+05 +4.791779e-03 -6.833233e-02 +9.952082e-01 +6.833233e-02 +9.952082e-01 +6.833233e-02 +4.791779e-03 -6.833233e-02
2.398833e+05 +4.479901e-03 -6.603249e-02 +9.955201e-01 +6.603249e-02 +9.955201e-01 +6.603249e-02 +4.479901e-03 -6.603249e-02
2.483133e+05 +4.188664e-03 -6.380868e-02 +9.958113e-01 +6.380868e-02 +9.958113e-01 +6.380868e-02 +4.188664e-03 -6.380868e-02
2.570396e+05 +3.916711e-03 -6.165851e-02 +9.960833e-01 +6.165851e-02 +9.960833e-01 +6.165851e-02 +3.916711e-03 -6.165851e-02
2.660725e+05 +3.662777e-03 -5.957967e-02 +9.963372e-01 +5.957967e-02 +9.963372e-01 +5.957967e-02 +3.662777e-03 -5.957967e-02
2.754229e+05 +3.425674e-03 -5.756988e-02 +9.965743e-01 +5.756988e-02 +9.965743e-01 +5.756988e-02 +3.425674e-03 -5.756988e-02
2.851018e+05 +3.204295e-03 -5.562696e-02 +9.967957e-01 +5.562696e-02 +9.967957e-01 +5.562696e-02 +3.204295e-03 -5.562696e-02
2.951209e+05 +2.997604e-03 -5.374875e-02 +9.970024e-01 +5.374875e-02 +9.970024e-01 +5.374875e-02 +2.997604e-03 -5.374875e-02
3.054921e+05 +2.804631e-03 -5.193318e-02 +9.971954e-01 +5.193318e-02 +9.971954e-01 +5.193318e-02 +2.804631e-03 -5.193318e-02
3.162278e+05 +2.624471e-03 -5.017823e-02 +9.973755e-01 +5.017823e-02 +9.973755e-01 +5.017823e-02 +2.624471e-03 -5.017823e-02
3.273407e+05 +2.456277e-03 -4.848194e-02 +9.975437e-01 +4.848194e-02 +9.975437e-01 +4.848194e-02 +2.456277e-03 -4.848194e-02
3.388442e+05 +2.299258e-03 -4.684240e-02 +9.977007e-01 +4.684240e-02 +9.977007e-01 +4.684240e-02 +2.299258e-03 -4.684240e-02
3.507519e+05 +2.152674e-03 -4.525777e-02 +9.978473e-01 +4.525777e-02 +9.978473e-01 +4.525777e-02 +2.152674e-03 -4.525777e-02
3.630781e+05 +2.015836e-03 -4.372624e-02 +9.979842e-01 +4.372624e-02 +9.979842e-01 +4.372624e-02 +2.015836e-03 -4.372624e-02
3.758374e+05 +1.888097e-03 -4.224608e-02 +9.981119e-01 +4.224608e-02 +9.981119e-01 +4.224608e-02 +1.888097e-03 -4.224608e-02
3.890451e+05 +1.768855e-03 -4.081559e-02 +9.982311e-01 +4.081559e-02 +9.982311e-01 +4.081559e-02 +1.768855e-03 -4.081559e-02
4.027170e+05 +1.657546e-03 -3.943316e-02 +9.983425e-01 +3.943316e-02 +9.983425e-01 +3.943316e-02 +1.657546e-03 -3.943316e-02
4.168694e+05 +1.553644e-03 -3.809718e-02 +9.984464e-01 +3.809718e-02 +9.984464e-01 +3.809718e-02 +1.553644e-03 -3.809718e-02
4.315191e+05 +1.456657e-03 -3.680612e-02 +9.985433e-01 +3.680612e-02 +9.985433e-01 +3.680612e-02 +1.456657e-03 -3.680612e-02
4.466836e+05 +1.366127e-03 -3.555850e-02 +9.986339e-01 +3.555850e-02 +9.986339e-01 +3.555850e-02 +1.366127e-03 -3.555850e-02
4.623810e+05 +1.281624e-03 -3.435287e-02 +9.987184e-01 +3.435287e-02 +9.987184e-01 +3.435287e-02 +1.281624e-03 -3.435287e-02
4.786301e+05 +1.202749e-03 -3.318784e-02 +9.987973e-01 +3.318784e-02 +9.987973e-01 +3.318784e-02 +1.202749e-03 -3.318784e-02
4.954502e+05 +1.129127e-03 -3.206205e-02 +9.988709e-01 +3.206205e-02 +9.988709e-01 +3.206205e-02 +1.129127e-03 -3.206205e-02
5.128614e+05 +1.060410e-03 -3.097420e-02 +9.989396e-01 +3.097420e-02 +9.989396e-01 +3.097420e-02 +1.060410e-03 -3.097420e-02
5.308844e+05 +9.962701e-04 -2.992302e-02 +9.990037e-01 +2.992302e-02 +9.990037e-01 +2.992302e-02 +9.962701e-04 -2.992302e-02
5.495409e+05 +9.364041e-04 -2.890728e-02 +9.990636e-01 +2.890728e-02 +9.990636e-01 +2.890728e-02 +9.364041e-04 -2.890728e-02
5.688529e+05 +8.805275e-04 -2.792580e-02 +9.991195e-01 +2.792580e-02 +9.991195e-01 +2.792580e-02 +8.805275e-04 -2.792580e-02
5.888437e+05 +8.283747e-04 -2.697742e-02 +9.991716e-01 +2.697742e-02 +9.991716e-01 +2.697742e-02 +8.283747e-04 -2.697742e-02
6.095369e+05 +7.796980e-04 -2.606104e-02 +9.992203e-01 +2.606104e-02 +9.992203e-01 +2.606104e-02 +7.796980e-04 -2.606104e-02
6.309573e+05 +7.342660e-04 -2.517559e-02 +9.992657e-01 +2.517559e-02 +9.992657e-01 +2.517559e-02 +7.342660e-04 -2.517559e-02
6.531306e+05 +6.918627e-04 -2.432002e-02 +9.993081e-01 +2.432002e-02 +9.993081e-01 +2.432002e-02 +6.918627e-04 -2.432002e-02
6.760830e+05 +6.522864e-04 -2.349332e-02 +9.993477e-01 +2.349332e-02 +9.993477e-01 +2.349332e-02 +6.522864e-04 -2.349332e-02
6.998420e+05 +6.153488e-04 -2.269453e-02 +9.993847e-01 +2.269453e-02 +9.993847e-01 +2.269453e-02 +6.153488e-04 -2.269453e-02
7.244360e+05 +5.808741e-04 -2.192270e-02 +9.994191e-01 +2.192270e-02 +9.994191e-01 +2.192270e-02 +5.808741e-04 -2.192270e-02
7.498942e+05 +5.486984e-04 -2.117693e-02 +9.994513e-01 +2.117693e-02 +9.994513e-01 +2.117693e-02 +5.486984e-04 -2.117693e-02
7.762471e+05 +5.186684e-04 -2.045633e-02 +9.994813e-01 +2.045633e-02 +9.994813e-01 +2.045633e-02 +5.186684e-04 -2.045633e-02
8.035261e+05 +4.906411e-04 -1.976005e-02 +9.995094e-01 +1.976005e-02 +9.995094e-01 +1.976005e-02 +4.906411e-04 -1.976005e-02
8.317638e+05 +4.644832e-04 -1.908727e-02 +9.995355e-01 +1.908727e-02 +9.995355e-01 +1.908727e-02 +4.644832e-04 -1.908727e-02
8.609938e+05 +4.400700e-04 -1.843720e-02 +9.995599e-01 +1.843720e-02 +9.995599e-01 +1.843720e-02 +4.400700e-04 -1.843720e-02
8.912509e+05 +4.172851e-04 -1.780906e-02 +9.995827e-01 +1.780906e-02 +9.995827e-01 +1.780906e-02 +4.172851e-04 -1.780906e-02
9.225714e+05 +3.960202e-04 -1.720212e-02 +9.996040e-01 +1.720212e-02 +9.996040e-01 +1.720212e-02 +3.960202e-04 -1.720212e-02
9.549926e+05 +3.761737e-04 -1.661565e-02 +9.996238e-01 +1.661565e-02 +9.996238e-01 +1.661565e-02 +3.761737e-04 -1.661565e-02
9.885531e+05 +3.576513e-04 -1.604896e-02 +9.996423e-01 +1.604896e-02 +9.996423e-01 +1.604896e-02 +3.576513e-04 -1.604896e-02
1.023293e+06 +3.403645e-04 -1.550138e-02 +9.996596e-01 +1.550138e-02 +9.996596e-01 +1.550138e-02 +3.403645e-04 -1.550138e-02
1.059254e+06 +3.242311e-04 -1.497225e-02 +9.996758e-01 +1.497225e-02 +9.996758e-01 +1.497225e-02 +3.242311e-04 -1.497225e-02
1.096478e+06 +3.091740e-04 -1.446096e-02 +9.996908e-01 +1.446096e-02 +9.996908e-01 +1.446096e-02 +3.091740e-04 -1.446096e-02
1.135011e+06 +2.951215e-04 -1.396689e-02 +9.997049e-01 +1.396689e-02 +9.997049e-01 +1.396689e-02 +2.951215e-04 -1.396689e-02
1.174898e+06 +2.820067e-04 -1.348945e-02 +9.997180e-01 +1.348945e-02 +9.997180e-01 +1.348945e-02 +2.820067e-04 -1.348945e-02
1.216186e+06 +2.697669e-04 -1.302809e-02 +9.997302e-01 +1.302809e-02 +9.997302e-01 +1.302809e-02 +2.697669e-04 -1.302809e-02
1.258925e+06 +2.583438e-04 -1.258225e-02 +9.997417e-01 +1.258225e-02 +9.997417e-01 +1.258225e-02 +2.583438e-04 -1.258225e-02
1.303167e+06 +2.476830e-04 -1.215140e-02 +9.997523e-01 +1.215140e-02 +9.997523e-01 +1.215140e-02 +2.476830e-04 -1.215140e-02
1.348963e+06 +2.377335e-04 -1.173502e-02 +9.997623e-01 +1.173502e-02 +9.997623e-01 +1.173502e-02 +2.377335e-04 -1.173502e-02
1.396368e+06 +2.284480e-04 -1.133264e-02 +9.997716e-01 +1.133264e-02 +9.997716e-01 +1.133264e-02 +2.284480e-04 -1.133264e-02
1.445440e+06 +2.197822e-04 -1.094376e-02 +9.997802e-01 +1.094376e-02 +9.997802e-01 +1.094376e-02 +2.197822e-04 -1.094376e-02
1.496236e+06 +2.116946e-04 -1.056792e-02 +9.997883e-01 +1.056792e-02 +9.997883e-01 +1.056792e-02 +2.116946e-04 -1.056792e-02
1.548817e+06 +2.041468e-04 -1.020468e-02 +9.997959e-01 +1.020468e-02 +9.997959e-01 +1.020468e-02 +2.041468e-04 -1.020468e-02
1.603245e+06 +1.971027e-04 -9.853606e-03 +9.998029e-01 +9.853606e-03 +9.998029e-01 +9.853606e-03 +1.971027e-04 -9.853606e-03
1.659587e+06 +1.905287e-04 -9.514277e-03 +9.998095e-01 +9.514277e-03 +9.998095e-01 +9.514277e-03 +1.905287e-04 -9.514277e-03
1.717908e+06 +1.843935e-04 -9.186290e-03 +9.998156e-01 +9.186290e-03 +9.998156e-01 +9.186290e-03 +1.843935e-04 -9.186290e-03
1.778279e+06 +1.786677e-04 -8.869255e-03 +9.998213e-01 +8.869255e-03 +9.998213e-01 +8.869255e-03 +1.786677e-04 -8.869255e-03
1.840772e+06 +1.733242e-04 -8.562795e-03 +9.998267e-01 +8.562795e-03 +9.998267e-01 +8.562795e-03 +1.733242e-04 -8.562795e-03
1.902265e+06 +1.685717e-04 -8.280710e-03 +9.998314e-01 +8.280710e-03 +9.998314e-01 +8.280710e-03 +1.685717e-04 -8.280710e-03
1.905461e+06 +1.683373e-04 -8.266545e-03 +9.998317e-01 +8.266545e-03 +9.998317e-01 +8.266545e-03 +1.683373e-04 -8.266545e-03
1.972423e+06 +1.636832e-04 -7.980151e-03 +9.998363e-01 +7.980151e-03 +9.998363e-01 +7.980151e-03 +1.636832e-04 -7.980151e-03
1.977324e+06 +1.633610e-04 -7.959943e-03 +9.998366e-01 +7.959943e-03 +9.998366e-01 +7.959943e-03 +1.633610e-04 -7.959943e-03
2.041738e+06 +1.593399e-04 -7.703274e-03 +9.998407e-01 +7.703274e-03 +9.998407e-01 +7.703274e-03 +1.593399e-04 -7.703274e-03
2.055344e+06 +1.585385e-04 -7.651092e-03 +9.998415e-01 +7.651092e-03 +9.998415e-01 +7.651092e-03 +1.585385e-04 -7.651092e-03
2.113489e+06 +1.552865e-04 -7.435582e-03 +9.998447e-01 +7.435582e-03 +9.998447e-01 +7.435582e-03 +1.552865e-04 -7.435582e-03
2.136443e+06 +1.540752e-04 -7.353695e-03 +9.998459e-01 +7.353695e-03 +9.998459e-01 +7.353695e-03 +1.540752e-04 -7.353695e-03
2.187762e+06 +1.515036e-04 -7.176756e-03 +9.998485e-01 +7.176756e-03 +9.998485e-01 +7.176756e-03 +1.515036e-04 -7.176756e-03
2.220741e+06 +1.499443e-04 -7.067308e-03 +9.998501e-01 +7.067308e-03 +9.998501e-01 +7.067308e-03 +1.499443e-04 -7.067308e-03
2.264644e+06 +1.479734e-04 -6.926490e-03 +9.998520e-01 +6.926490e-03 +9.998520e-01 +6.926490e-03 +1.479734e-04 -6.926490e-03
2.308366e+06 +1.461212e-04 -6.791501e-03 +9.998539e-01 +6.791501e-03 +9.998539e-01 +6.791501e-03 +1.461212e-04 -6.791501e-03
2.344229e+06 +1.446788e-04 -6.684484e-03 +9.998553e-01 +6.684484e-03 +9.998553e-01 +6.684484e-03 +1.446788e-04 -6.684484e-03
2.399449e+06 +1.425830e-04 -6.525863e-03 +9.998574e-01 +6.525863e-03 +9.998574e-01 +6.525863e-03 +1.425830e-04 -6.525863e-03
2.426610e+06 +1.416042e-04 -6.450449e-03 +9.998584e-01 +6.450449e-03 +9.998584e-01 +6.450449e-03 +1.416042e-04 -6.450449e-03
2.494125e+06 +1.393083e-04 -6.269996e-03 +9.998607e-01 +6.269996e-03 +9.998607e-01 +6.269996e-03 +1.393083e-04 -6.269996e-03
2.511886e+06 +1.387349e-04 -6.224108e-03 +9.998613e-01 +6.224108e-03 +9.998613e-01 +6.224108e-03 +1.387349e-04 -6.224108e-03
2.592537e+06 +1.362777e-04 -6.023517e-03 +9.998637e-01 +6.023517e-03 +9.998637e-01 +6.023517e-03 +1.362777e-04 -6.023517e-03
2.600160e+06 +1.360572e-04 -6.005190e-03 +9.998639e-01 +6.005190e-03 +9.998639e-01 +6.005190e-03 +1.360572e-04 -6.005190e-03
2.691535e+06 +1.335584e-04 -5.793434e-03 +9.998664e-01 +5.793434e-03 +9.998664e-01 +5.793434e-03 +1.335584e-04 -5.793434e-03
2.694832e+06 +1.334729e-04 -5.786057e-03 +9.998665e-01 +5.786057e-03 +9.998665e-01 +5.786057e-03 +1.334729e-04 -5.786057e-03
2.786121e+06 +1.312264e-04 -5.588588e-03 +9.998688e-01 +5.588588e-03 +9.998688e-01 +5.588588e-03 +1.312264e-04 -5.588588e-03
2.801163e+06 +1.308772e-04 -5.557261e-03 +9.998691e-01 +5.557261e-03 +9.998691e-01 +5.557261e-03 +1.308772e-04 -5.557261e-03
2.884032e+06 +1.290502e-04 -5.390407e-03 +9.998709e-01 +5.390407e-03 +9.998709e-01 +5.390407e-03 +1.290502e-04 -5.390407e-03
2.911690e+06 +1.284749e-04 -5.336786e-03 +9.998715e-01 +5.336786e-03 +9.998715e-01 +5.336786e-03 +1.284749e-04 -5.336786e-03
2.985383e+06 +1.270195e-04 -5.198656e-03 +9.998730e-01 +5.198656e-03 +9.998730e-01 +5.198656e-03 +1.270195e-04 -5.198656e-03
3.026577e+06 +1.262518e-04 -5.124303e-03 +9.998737e-01 +5.124303e-03 +9.998737e-01 +5.124303e-03 +1.262518e-04 -5.124303e-03
3.090295e+06 +1.251244e-04 -5.013106e-03 +9.998749e-01 +5.013106e-03 +9.998749e-01 +5.013106e-03 +1.251244e-04 -5.013106e-03
3.145998e+06 +1.241944e-04 -4.919493e-03 +9.998758e-01 +4.919493e-03 +9.998758e-01 +4.919493e-03 +1.241944e-04 -4.919493e-03
3.198895e+06 +1.233559e-04 -4.833535e-03 +9.998766e-01 +4.833535e-03 +9.998766e-01 +4.833535e-03 +1.233559e-04 -4.833535e-03
3.270132e+06 +1.222905e-04 -4.722050e-03 +9.998777e-01 +4.722050e-03 +9.998777e-01 +4.722050e-03 +1.222905e-04 -4.722050e-03
3.311311e+06 +1.217057e-04 -4.659730e-03 +9.998783e-01 +4.659730e-03 +9.998783e-01 +4.659730e-03 +1.217057e-04 -4.659730e-03
3.399163e+06 +1.205286e-04 -4.531678e-03 +9.998795e-01 +4.531678e-03 +9.998795e-01 +4.531678e-03 +1.205286e-04 -4.531678e-03
3.427678e+06 +1.201658e-04 -4.491483e-03 +9.998798e-01 +4.491483e-03 +9.998798e-01 +4.491483e-03 +1.201658e-04 -4.491483e-03
3.533285e+06 +1.188982e-04 -4.348093e-03 +9.998811e-01 +4.348093e-03 +9.998811e-01 +4.348093e-03 +1.188982e-04 -4.348093e-03
3.548134e+06 +1.187289e-04 -4.328594e-03 +9.998813e-01 +4.328594e-03 +9.998813e-01 +4.328594e-03 +1.187289e-04 -4.328594e-03
3.672700e+06 +1.173894e-04 -4.171019e-03 +9.998826e-01 +4.171019e-03 +9.998826e-01 +4.171019e-03 +1.173894e-04 -4.171019e-03
3.672823e+06 +1.173882e-04 -4.170868e-03 +9.998826e-01 +4.170868e-03 +9.998826e-01 +4.170868e-03 +1.173882e-04 -4.170868e-03
3.801894e+06 +1.161371e-04 -4.018117e-03 +9.998839e-01 +4.018117e-03 +9.998839e-01 +4.018117e-03 +1.161371e-04 -4.018117e-03
3.817615e+06 +1.159934e-04 -4.000191e-03 +9.998840e-01 +4.000191e-03 +9.998840e-01 +4.000191e-03 +1.159934e-04 -4.000191e-03
3.935501e+06 +1.149699e-04 -3.870159e-03 +9.998850e-01 +3.870159e-03 +9.998850e-01 +3.870159e-03 +1.149699e-04 -3.870159e-03
3.968248e+06 +1.147016e-04 -3.835354e-03 +9.998853e-01 +3.835354e-03 +9.998853e-01 +3.835354e-03 +1.147016e-04 -3.835354e-03
4.073803e+06 +1.138808e-04 -3.726818e-03 +9.998861e-01 +3.726818e-03 +9.998861e-01 +3.726818e-03 +1.138808e-04 -3.726818e-03
4.124825e+06 +1.135064e-04 -3.676261e-03 +9.998865e-01 +3.676261e-03 +9.998865e-01 +3.676261e-03 +1.135064e-04 -3.676261e-03
4.216965e+06 +1.128646e-04 -3.587923e-03 +9.998871e-01 +3.587923e-03 +9.998871e-01 +3.587923e-03 +1.128646e-04 -3.587923e-03
4.287581e+06 +1.124006e-04 -3.522673e-03 +9.998876e-01 +3.522673e-03 +9.998876e-01 +3.522673e-03 +1.124006e-04 -3.522673e-03
4.365158e+06 +1.119167e-04 -3.453308e-03 +9.998881e-01 +3.453308e-03 +9.998881e-01 +3.453308e-03 +1.119167e-04 -3.453308e-03
4.456758e+06 +1.113776e-04 -3.374361e-03 +9.998886e-01 +3.374361e-03 +9.998886e-01 +3.374361e-03 +1.113776e-04 -3.374361e-03
4.518559e+06 +1.110323e-04 -3.322812e-03 +9.998890e-01 +3.322812e-03 +9.998890e-01 +3.322812e-03 +1.110323e-04 -3.322812e-03
4.632610e+06 +1.104312e-04 -3.231102e-03 +9.998896e-01 +3.231102e-03 +9.998896e-01 +3.231102e-03 +1.104312e-04 -3.231102e-03
4.677351e+06 +1.102073e-04 -3.196280e-03 +9.998898e-01 +3.196280e-03 +9.998898e-01 +3.196280e-03 +1.102073e-04 -3.196280e-03
4.815401e+06 +1.095557e-04 -3.092683e-03 +9.998904e-01 +3.092683e-03 +9.998904e-01 +3.092683e-03 +1.095557e-04 -3.092683e-03
4.841724e+06 +1.094378e-04 -3.073561e-03 +9.998906e-01 +3.073561e-03 +9.998906e-01 +3.073561e-03 +1.094378e-04 -3.073561e-03
5.005404e+06 +1.087460e-04 -2.958895e-03 +9.998913e-01 +2.958895e-03 +9.998913e-01 +2.958895e-03 +1.087460e-04 -2.958895e-03
5.011872e+06 +1.087201e-04 -2.954508e-03 +9.998913e-01 +2.954508e-03 +9.998913e-01 +2.954508e-03 +1.087201e-04 -2.954508e-03
5.188000e+06 +1.080507e-04 -2.838980e-03 +9.998919e-01 +2.838980e-03 +9.998919e-01 +2.838980e-03 +1.080507e-04 -2.838980e-03
5.202905e+06 +1.079972e-04 -2.829539e-03 +9.998920e-01 +2.829539e-03 +9.998920e-01 +2.829539e-03 +1.079972e-04 -2.829539e-03
5.370318e+06 +1.074265e-04 -2.726839e-03 +9.998926e-01 +2.726839e-03 +9.998926e-01 +2.726839e-03 +1.074265e-04 -2.726839e-03
5.408199e+06 +1.073047e-04 -2.704420e-03 +9.998927e-01 +2.704420e-03 +9.998927e-01 +2.704420e-03 +1.073047e-04 -2.704420e-03
5.559043e+06 +1.068444e-04 -2.617951e-03 +9.998932e-01 +2.617951e-03 +9.998932e-01 +2.617951e-03 +1.068444e-04 -2.617951e-03
5.621592e+06 +1.066644e-04 -2.583352e-03 +9.998933e-01 +2.583352e-03 +9.998933e-01 +2.583352e-03 +1.066644e-04 -2.583352e-03
5.754399e+06 +1.063017e-04 -2.512186e-03 +9.998937e-01 +2.512186e-03 +9.998937e-01 +2.512186e-03 +1.063017e-04 -2.512186e-03
5.843406e+06 +1.060726e-04 -2.466153e-03 +9.998939e-01 +2.466153e-03 +9.998939e-01 +2.466153e-03 +1.060726e-04 -2.466153e-03
5.956621e+06 +1.057959e-04 -2.409418e-03 +9.998942e-01 +2.409418e-03 +9.998942e-01 +2.409418e-03 +1.057959e-04 -2.409418e-03
6.073972e+06 +1.055255e-04 -2.352647e-03 +9.998945e-01 +2.352647e-03 +9.998945e-01 +2.352647e-03 +1.055255e-04 -2.352647e-03
6.165950e+06 +1.053245e-04 -2.309524e-03 +9.998947e-01 +2.309524e-03 +9.998947e-01 +2.309524e-03 +1.053245e-04 -2.309524e-03
6.313636e+06 +1.050201e-04 -2.242665e-03 +9.998950e-01 +2.242665e-03 +9.998950e-01 +2.242665e-03 +1.050201e-04 -2.242665e-03
6.382635e+06 +1.048852e-04 -2.212385e-03 +9.998951e-01 +2.212385e-03 +9.998951e-01 +2.212385e-03 +1.048852e-04 -2.212385e-03
6.562756e+06 +1.045532e-04 -2.136042e-03 +9.998954e-01 +2.136042e-03 +9.998954e-01 +2.136042e-03 +1.045532e-04 -2.136042e-03
6.606934e+06 +1.044759e-04 -2.117886e-03 +9.998955e-01 +2.117886e-03 +9.998955e-01 +2.117886e-03 +1.044759e-04 -2.117886e-03
6.821705e+06 +1.041220e-04 -2.032618e-03 +9.998959e-01 +2.032618e-03 +9.998959e-01 +2.032618e-03 +1.041220e-04 -2.032618e-03
6.839116e+06 +1.040948e-04 -2.025914e-03 +9.998959e-01 +2.025914e-03 +9.998959e-01 +2.025914e-03 +1.040948e-04 -2.025914e-03
7.079458e+06 +1.037399e-04 -1.936358e-03 +9.998963e-01 +1.936358e-03 +9.998963e-01 +1.936358e-03 +1.037399e-04 -1.936358e-03
7.090873e+06 +1.037239e-04 -1.932238e-03 +9.998963e-01 +1.932238e-03 +9.998963e-01 +1.932238e-03 +1.037239e-04 -1.932238e-03
7.328245e+06 +1.034096e-04 -1.849112e-03 +9.998966e-01 +1.849112e-03 +9.998966e-01 +1.849112e-03 +1.034096e-04 -1.849112e-03
7.370660e+06 +1.033567e-04 -1.834752e-03 +9.998966e-01 +1.834752e-03 +9.998966e-01 +1.834752e-03 +1.033567e-04 -1.834752e-03
7.585776e+06 +1.031023e-04 -1.764073e-03 +9.998969e-01 +1.764073e-03 +9.998969e-01 +1.764073e-03 +1.031023e-04 -1.764073e-03
7.661488e+06 +1.030180e-04 -1.740014e-03 +9.998970e-01 +1.740014e-03 +9.998970e-01 +1.740014e-03 +1.030180e-04 -1.740014e-03
7.852356e+06 +1.028165e-04 -1.681137e-03 +9.998972e-01 +1.681137e-03 +9.998972e-01 +1.681137e-03 +1.028165e-04 -1.681137e-03
7.963791e+06 +1.027058e-04 -1.647882e-03 +9.998973e-01 +1.647882e-03 +9.998973e-01 +1.647882e-03 +1.027058e-04 -1.647882e-03
8.128305e+06 +1.025509e-04 -1.600208e-03 +9.998974e-01 +1.600208e-03 +9.998974e-01 +1.600208e-03 +1.025509e-04 -1.600208e-03
8.278022e+06 +1.024183e-04 -1.558219e-03 +9.998976e-01 +1.558219e-03 +9.998976e-01 +1.558219e-03 +1.024183e-04 -1.558219e-03
8.413951e+06 +1.023042e-04 -1.521187e-03 +9.998977e-01 +1.521187e-03 +9.998977e-01 +1.521187e-03 +1.023042e-04 -1.521187e-03
8.604652e+06 +1.021537e-04 -1.470889e-03 +9.998978e-01 +1.470889e-03 +9.998978e-01 +1.470889e-03 +1.021537e-04 -1.470889e-03
8.709636e+06 +1.020753e-04 -1.443982e-03 +9.998979e-01 +1.443982e-03 +9.998979e-01 +1.443982e-03 +1.020753e-04 -1.443982e-03
8.944169e+06 +1.019105e-04 -1.385762e-03 +9.998981e-01 +1.385762e-03 +9.998981e-01 +1.385762e-03 +1.019105e-04 -1.385762e-03
9.015711e+06 +1.018630e-04 -1.368499e-03 +9.998981e-01 +1.368499e-03 +9.998981e-01 +1.368499e-03 +1.018630e-04 -1.368499e-03
9.297084e+06 +1.016872e-04 -1.302710e-03 +9.998983e-01 +1.302710e-03 +9.998983e-01 +1.302710e-03 +1.016872e-04 -1.302710e-03
9.332543e+06 +1.016663e-04 -1.294648e-03 +9.998983e-01 +1.294648e-03 +9.998983e-01 +1.294648e-03 +1.016663e-04 -1.294648e-03
9.660509e+06 +1.014843e-04 -1.222342e-03 +9.998985e-01 +1.222342e-03 +9.998985e-01 +1.222342e-03 +1.014843e-04 -1.222342e-03
9.663923e+06 +1.014825e-04 -1.221610e-03 +9.998985e-01 +1.221610e-03 +9.998985e-01 +1.221610e-03 +1.014825e-04 -1.221610e-03
1.000000e+07 +1.013161e-04 -1.151495e-03 +9.998987e-01 +1.151495e-03 +9.998987e-01 +1.151495e-03 +1.013161e-04 -1.151495e-03
1.004524e+07 +1.012951e-04 -1.142340e-03 +9.998987e-01 +1.142340e-03 +9.998987e-01 +1.142340e-03 +1.012951e-04 -1.142340e-03
1.035142e+07 +1.011609e-04 -1.082021e-03 +9.998988e-01 +1.082021e-03 +9.998988e-01 +1.082021e-03 +1.011609e-04 -1.082021e-03
1.044160e+07 +1.011239e-04 -1.064780e-03 +9.998989e-01 +1.064780e-03 +9.998989e-01 +1.064780e-03 +1.011239e-04 -1.064780e-03
1.071519e+07 +1.010180e-04 -1.013838e-03 +9.998990e-01 +1.013838e-03 +9.998990e-01 +1.013838e-03 +1.010180e-04 -1.013838e-03
1.085360e+07 +1.009679e-04 -9.888151e-04 +9.998990e-01 +9.888151e-04 +9.998990e-01 +9.888151e-04 +1.009679e-04 -9.888151e-04
1.109175e+07 +1.008866e-04 -9.468642e-04 +9.998991e-01 +9.468642e-04 +9.998991e-01 +9.468642e-04 +1.008866e-04 -9.468642e-04
1.128185e+07 +1.008261e-04 -9.143312e-04 +9.998992e-01 +9.143312e-04 +9.998992e-01 +9.143312e-04 +1.008261e-04 -9.143312e-04
1.148154e+07 +1.007663e-04 -8.810204e-04 +9.998992e-01 +8.810204e-04 +9.998992e-01 +8.810204e-04 +1.007663e-04 -8.810204e-04
1.172700e+07 +1.006977e-04 -8.412168e-04 +9.998993e-01 +8.412168e-04 +9.998993e-01 +8.412168e-04 +1.006977e-04 -8.412168e-04
1.188502e+07 +1.006563e-04 -8.162276e-04 +9.998993e-01 +8.162276e-04 +9.998993e-01 +8.162276e-04 +1.006563e-04 -8.162276e-04
1.218972e+07 +1.005820e-04 -7.693624e-04 +9.998994e-01 +7.693624e-04 +9.998994e-01 +7.693624e-04 +1.005820e-04 -7.693624e-04
1.230269e+07 +1.005562e-04 -7.524086e-04 +9.998994e-01 +7.524086e-04 +9.998994e-01 +7.524086e-04 +1.005562e-04 -7.524086e-04
1.267070e+07 +1.004782e-04 -6.986602e-04 +9.998995e-01 +6.986602e-04 +9.998995e-01 +6.986602e-04 +1.004782e-04 -6.986602e-04
1.273503e+07 +1.004654e-04 -6.894872e-04 +9.998995e-01 +6.894872e-04 +9.998995e-01 +6.894872e-04 +1.004654e-04 -6.894872e-04
1.317065e+07 +1.003857e-04 -6.290045e-04 +9.998996e-01 +6.290045e-04 +9.998996e-01 +6.290045e-04 +1.003857e-04 -6.290045e-04
1.318257e+07 +1.003837e-04 -6.273884e-04 +9.998996e-01 +6.273884e-04 +9.998996e-01 +6.273884e-04 +1.003837e-04 -6.273884e-04
1.364583e+07 +1.003104e-04 -5.660381e-04 +9.998997e-01 +5.660381e-04 +9.998997e-01 +5.660381e-04 +1.003104e-04 -5.660381e-04
1.369033e+07 +1.003040e-04 -5.602909e-04 +9.998997e-01 +5.602909e-04 +9.998997e-01 +5.602909e-04 +1.003040e-04 -5.602909e-04
1.412538e+07 +1.002454e-04 -5.053630e-04 +9.998998e-01 +5.053630e-04 +9.998998e-01 +5.053630e-04 +1.002454e-04 -5.053630e-04
1.423052e+07 +1.002325e-04 -4.924164e-04 +9.998998e-01 +4.924164e-04 +9.998998e-01 +4.924164e-04 +1.002325e-04 -4.924164e-04
1.462177e+07 +1.001883e-04 -4.452909e-04 +9.998998e-01 +4.452909e-04 +9.998998e-01 +4.452909e-04 +1.001883e-04 -4.452909e-04
1.479202e+07 +1.001709e-04 -4.252795e-04 +9.998998e-01 +4.252795e-04 +9.998998e-01 +4.252795e-04 +1.001709e-04 -4.252795e-04
1.513561e+07 +1.001388e-04 -3.857501e-04 +9.998999e-01 +3.857501e-04 +9.998999e-01 +3.857501e-04 +1.001388e-04 -3.857501e-04
1.537567e+07 +1.001187e-04 -3.587796e-04 +9.998999e-01 +3.587796e-04 +9.998999e-01 +3.587796e-04 +1.001187e-04 -3.587796e-04
1.566751e+07 +1.000967e-04 -3.266694e-04 +9.998999e-01 +3.266694e-04 +9.998999e-01 +3.266694e-04 +1.000967e-04 -3.266694e-04
1.598236e+07 +1.000758e-04 -2.928170e-04 +9.998999e-01 +2.928170e-04 +9.998999e-01 +2.928170e-04 +1.000758e-04 -2.928170e-04
1.621810e+07 +1.000618e-04 -2.679785e-04 +9.998999e-01 +2.679785e-04 +9.998999e-01 +2.679785e-04 +1.000618e-04 -2.679785e-04
1.661298e+07 +1.000417e-04 -2.272930e-04 +9.999000e-01 +2.272930e-04 +9.999000e-01 +2.272930e-04 +1.000417e-04 -2.272930e-04
1.678804e+07 +1.000339e-04 -2.096072e-04 +9.999000e-01 +2.096072e-04 +9.999000e-01 +2.096072e-04 +1.000339e-04 -2.096072e-04
1.726849e+07 +1.000163e-04 -1.621094e-04 +9.999000e-01 +1.621094e-04 +9.999000e-01 +1.621094e-04 +1.000163e-04 -1.621094e-04
1.737801e+07 +1.000130e-04 -1.514861e-04 +9.999000e-01 +1.514861e-04 +9.999000e-01 +1.514861e-04 +1.000130e-04 -1.514861e-04
1.794986e+07 +9.999944e-05 -9.716861e-05 +9.999000e-01 +9.716861e-05 +9.999000e-01 +9.716861e-05 +9.999944e-05 -9.716861e-05
1.798871e+07 +9.999875e-05 -9.354564e-05 +9.999000e-01 +9.354564e-05 +9.999000e-01 +9.354564e-05 +9.999875e-05 -9.354564e-05
1.862087e+07 +9.999128e-05 -3.571681e-05 +9.999000e-01 +3.571681e-05 +9.999000e-01 +3.571681e-05 +9.999128e-05 -3.571681e-05
1.865811e+07 +9.999105e-05 -3.237338e-05 +9.999000e-01 +3.237338e-05 +9.999000e-01 +3.237338e-05 +9.999105e-05 -3.237338e-05
1.927525e+07 +9.999049e-05 +2.206941e-05 +9.999000e-01 -2.206941e-05 +9.999000e-01 -2.206941e-05 +9.999049e-05 +2.206941e-05
1.939432e+07 +9.999105e-05 +3.237338e-05 +9.999000e-01 -3.237338e-05 +9.999000e-01 -3.237338e-05 +9.999105e-05 +3.237338e-05
1.995262e+07 +9.999638e-05 +7.988197e-05 +9.999000e-01 -7.988197e-05 +9.999000e-01 -7.988197e-05 +9.999638e-05 +7.988197e-05
2.015957e+07 +9.999944e-05 +9.716861e-05 +9.999000e-01 -9.716861e-05 +9.999000e-01 -9.716861e-05 +9.999944e-05 +9.716861e-05
2.065380e+07 +1.000090e-04 +1.377898e-04 +9.999000e-01 -1.377898e-04 +9.999000e-01 -1.377898e-04 +1.000090e-04 +1.377898e-04
2.095501e+07 +1.000163e-04 +1.621094e-04 +9.999000e-01 -1.621094e-04 +9.999000e-01 -1.621094e-04 +1.000163e-04 +1.621094e-04
2.137962e+07 +1.000284e-04 +1.958621e-04 +9.999000e-01 -1.958621e-04 +9.999000e-01 -1.958621e-04 +1.000284e-04 +1.958621e-04
2.178184e+07 +1.000417e-04 +2.272930e-04 +9.999000e-01 -2.272930e-04 +9.999000e-01 -2.272930e-04 +1.000417e-04 +2.272930e-04
2.213095e+07 +1.000546e-04 +2.541680e-04 +9.998999e-01 -2.541680e-04 +9.998999e-01 -2.541680e-04 +1.000546e-04 +2.541680e-04
2.264130e+07 +1.000758e-04 +2.928170e-04 +9.998999e-01 -2.928170e-04 +9.998999e-01 -2.928170e-04 +1.000758e-04 +2.928170e-04
2.290868e+07 +1.000878e-04 +3.127771e-04 +9.998999e-01 -3.127771e-04 +9.998999e-01 -3.127771e-04 +1.000878e-04 +3.127771e-04
2.353467e+07 +1.001187e-04 +3.587796e-04 +9.998999e-01 -3.587796e-04 +9.998999e-01 -3.587796e-04 +1.001187e-04 +3.587796e-04
2.371374e+07 +1.001282e-04 +3.717594e-04 +9.998999e-01 -3.717594e-04 +9.998999e-01 -3.717594e-04 +1.001282e-04 +3.717594e-04
2.446329e+07 +1.001709e-04 +4.252795e-04 +9.998998e-01 -4.252795e-04 +9.998998e-01 -4.252795e-04 +1.001709e-04 +4.252795e-04
2.454709e+07 +1.001759e-04 +4.311852e-04 +9.998998e-01 -4.311852e-04 +9.998998e-01 -4.311852e-04 +1.001759e-04 +4.311852e-04
2.540973e+07 +1.002312e-04 +4.911254e-04 +9.998998e-01 -4.911254e-04 +9.998998e-01 -4.911254e-04 +1.002312e-04 +4.911254e-04
2.542855e+07 +1.002325e-04 +4.924164e-04 +9.998998e-01 -4.924164e-04 +9.998998e-01 -4.924164e-04 +1.002325e-04 +4.924164e-04
2.630268e+07 +1.002944e-04 +5.516516e-04 +9.998997e-01 -5.516516e-04 +9.998997e-01 -5.516516e-04 +1.002944e-04 +5.516516e-04
2.643189e+07 +1.003040e-04 +5.602909e-04 +9.998997e-01 -5.602909e-04 +9.998997e-01 -5.602909e-04 +1.003040e-04 +5.602909e-04
2.722701e+07 +1.003656e-04 +6.128358e-04 +9.998996e-01 -6.128358e-04 +9.998996e-01 -6.128358e-04 +1.003656e-04 +6.128358e-04
2.747483e+07 +1.003857e-04 +6.290045e-04 +9.998996e-01 -6.290045e-04 +9.998996e-01 -6.290045e-04 +1.003857e-04 +6.290045e-04
2.818383e+07 +1.004453e-04 +6.747512e-04 +9.998996e-01 -6.747512e-04 +9.998996e-01 -6.747512e-04 +1.004453e-04 +6.747512e-04
2.855891e+07 +1.004782e-04 +6.986602e-04 +9.998995e-01 -6.986602e-04 +9.998995e-01 -6.986602e-04 +1.004782e-04 +6.986602e-04
2.917427e+07 +1.005339e-04 +7.374716e-04 +9.998995e-01 -7.374716e-04 +9.998995e-01 -7.374716e-04 +1.005339e-04 +7.374716e-04
2.968578e+07 +1.005820e-04 +7.693624e-04 +9.998994e-01 -7.693624e-04 +9.998994e-01 -7.693624e-04 +1.005820e-04 +7.693624e-04
3.019952e+07 +1.006318e-04 +8.010719e-04 +9.998994e-01 -8.010719e-04 +9.998994e-01 -8.010719e-04 +1.006318e-04 +8.010719e-04
3.085710e+07 +1.006977e-04 +8.412168e-04 +9.998993e-01 -8.412168e-04 +9.998993e-01 -8.412168e-04 +1.006977e-04 +8.412168e-04
3.126079e+07 +1.007394e-04 +8.656278e-04 +9.998993e-01 -8.656278e-04 +9.998993e-01 -8.656278e-04 +1.007394e-04 +8.656278e-04
3.207465e+07 +1.008261e-04 +9.143312e-04 +9.998992e-01 -9.143312e-04 +9.998992e-01 -9.143312e-04 +1.008261e-04 +9.143312e-04
3.235937e+07 +1.008573e-04 +9.312164e-04 +9.998991e-01 -9.312164e-04 +9.998991e-01 -9.312164e-04 +1.008573e-04 +9.312164e-04
3.334023e+07 +1.009679e-04 +9.888151e-04 +9.998990e-01 -9.888151e-04 +9.998990e-01 -9.888151e-04 +1.009679e-04 +9.888151e-04
3.349654e+07 +1.009859e-04 +9.979160e-04 +9.998990e-01 -9.979160e-04 +9.998990e-01 -9.979160e-04 +1.009859e-04 +9.979160e-04
3.465575e+07 +1.011239e-04 +1.064780e-03 +9.998989e-01 -1.064780e-03 +9.998989e-01 -1.064780e-03 +1.011239e-04 +1.064780e-03
3.467369e+07 +1.011261e-04 +1.065806e-03 +9.998989e-01 -1.065806e-03 +9.998989e-01 -1.065806e-03 +1.011261e-04 +1.065806e-03
3.589219e+07 +1.012783e-04 +1.134968e-03 +9.998987e-01 -1.134968e-03 +9.998987e-01 -1.134968e-03 +1.012783e-04 +1.134968e-03
3.602318e+07 +1.012951e-04 +1.142340e-03 +9.998987e-01 -1.142340e-03 +9.998987e-01 -1.142340e-03 +1.012951e-04 +1.142340e-03
3.715352e+07 +1.014433e-04 +1.205483e-03 +9.998986e-01 -1.205483e-03 +9.998986e-01 -1.205483e-03 +1.014433e-04 +1.205483e-03
3.744456e+07 +1.014825e-04 +1.221610e-03 +9.998985e-01 -1.221610e-03 +9.998985e-01 -1.221610e-03 +1.014825e-04 +1.221610e-03
3.845918e+07 +1.016220e-04 +1.277437e-03 +9.998984e-01 -1.277437e-03 +9.998984e-01 -1.277437e-03 +1.016220e-04 +1.277437e-03
3.892203e+07 +1.016872e-04 +1.302710e-03 +9.998983e-01 -1.302710e-03 +9.998983e-01 -1.302710e-03 +1.016872e-04 +1.302710e-03
3.981072e+07 +1.018152e-04 +1.350915e-03 +9.998982e-01 -1.350915e-03 +9.998982e-01 -1.350915e-03 +1.018152e-04 +1.350915e-03
4.045779e+07 +1.019105e-04 +1.385762e-03 +9.998981e-01 -1.385762e-03 +9.998981e-01 -1.385762e-03 +1.019105e-04 +1.385762e-03
4.120975e+07 +1.020237e-04 +1.426004e-03 +9.998980e-01 -1.426004e-03 +9.998980e-01 -1.426004e-03 +1.020237e-04 +1.426004e-03
4.205416e+07 +1.021537e-04 +1.470889e-03 +9.998978e-01 -1.470889e-03 +9.998978e-01 -1.470889e-03 +1.021537e-04 +1.470889e-03
4.265795e+07 +1.022486e-04 +1.502795e-03 +9.998978e-01 -1.502795e-03 +9.998978e-01 -1.502795e-03 +1.022486e-04 +1.502795e-03
4.371351e+07 +1.024183e-04 +1.558219e-03 +9.998976e-01 -1.558219e-03 +9.998976e-01 -1.558219e-03 +1.024183e-04 +1.558219e-03
4.415704e+07 +1.024910e-04 +1.581379e-03 +9.998975e-01 -1.581379e-03 +9.998975e-01 -1.581379e-03 +1.024910e-04 +1.581379e-03
4.543833e+07 +1.027058e-04 +1.647882e-03 +9.998973e-01 -1.647882e-03 +9.998973e-01 -1.647882e-03 +1.027058e-04 +1.647882e-03
4.570882e+07 +1.027520e-04 +1.661849e-03 +9.998972e-01 -1.661849e-03 +9.998972e-01 -1.661849e-03 +1.027520e-04 +1.661849e-03
4.723121e+07 +1.030180e-04 +1.740014e-03 +9.998970e-01 -1.740014e-03 +9.998970e-01 -1.740014e-03 +1.030180e-04 +1.740014e-03
4.731513e+07 +1.030329e-04 +1.744302e-03 +9.998970e-01 -1.744302e-03 +9.998970e-01 -1.744302e-03 +1.030329e-04 +1.744302e-03
4.897788e+07 +1.033350e-04 +1.828835e-03 +9.998967e-01 -1.828835e-03 +9.998967e-01 -1.828835e-03 +1.033350e-04 +1.828835e-03
4.909484e+07 +1.033567e-04 +1.834752e-03 +9.998966e-01 -1.834752e-03 +9.998966e-01 -1.834752e-03 +1.033567e-04 +1.834752e-03
5.069907e+07 +1.036597e-04 +1.915551e-03 +9.998963e-01 -1.915551e-03 +9.998963e-01 -1.915551e-03 +1.036597e-04 +1.915551e-03
5.103199e+07 +1.037239e-04 +1.932238e-03 +9.998963e-01 -1.932238e-03 +9.998963e-01 -1.932238e-03 +1.037239e-04 +1.932238e-03
5.248075e+07 +1.040086e-04 +2.004551e-03 +9.998960e-01 -2.004551e-03 +9.998960e-01 -2.004551e-03 +1.040086e-04 +2.004551e-03
5.304559e+07 +1.041220e-04 +2.032618e-03 +9.998959e-01 -2.032618e-03 +9.998959e-01 -2.032618e-03 +1.041220e-04 +2.032618e-03
5.432503e+07 +1.043834e-04 +2.095943e-03 +9.998956e-01 -2.095943e-03 +9.998956e-01 -2.095943e-03 +1.043834e-04 +2.095943e-03
5.513863e+07 +1.045532e-04 +2.136042e-03 +9.998954e-01 -2.136042e-03 +9.998954e-01 -2.136042e-03 +1.045532e-04 +2.136042e-03
5.623413e+07 +1.047859e-04 +2.189836e-03 +9.998952e-01 -2.189836e-03 +9.998952e-01 -2.189836e-03 +1.047859e-04 +2.189836e-03
5.731426e+07 +1.050201e-04 +2.242665e-03 +9.998950e-01 -2.242665e-03 +9.998950e-01 -2.242665e-03 +1.050201e-04 +2.242665e-03
5.821032e+07 +1.052179e-04 +2.286341e-03 +9.998948e-01 -2.286341e-03 +9.998948e-01 -2.286341e-03 +1.052179e-04 +2.286341e-03
5.957574e+07 +1.055255e-04 +2.352647e-03 +9.998945e-01 -2.352647e-03 +9.998945e-01 -2.352647e-03 +1.055255e-04 +2.352647e-03
6.025596e+07 +1.056816e-04 +2.385573e-03 +9.998943e-01 -2.385573e-03 +9.998943e-01 -2.385573e-03 +1.056816e-04 +2.385573e-03
6.192645e+07 +1.060726e-04 +2.466153e-03 +9.998939e-01 -2.466153e-03 +9.998939e-01 -2.466153e-03 +1.060726e-04 +2.466153e-03
6.237348e+07 +1.061791e-04 +2.487652e-03 +9.998938e-01 -2.487652e-03 +9.998938e-01 -2.487652e-03 +1.061791e-04 +2.487652e-03
6.436991e+07 +1.066644e-04 +2.583352e-03 +9.998933e-01 -2.583352e-03 +9.998933e-01 -2.583352e-03 +1.066644e-04 +2.583352e-03
6.456542e+07 +1.067128e-04 +2.592698e-03 +9.998933e-01 -2.592698e-03 +9.998933e-01 -2.592698e-03 +1.067128e-04 +2.592698e-03
6.683439e+07 +1.072853e-04 +2.700837e-03 +9.998927e-01 -2.700837e-03 +9.998927e-01 -2.700837e-03 +1.072853e-04 +2.700837e-03
6.690978e+07 +1.073047e-04 +2.704420e-03 +9.998927e-01 -2.704420e-03 +9.998927e-01 -2.704420e-03 +1.073047e-04 +2.704420e-03
6.918310e+07 +1.078993e-04 +2.812198e-03 +9.998921e-01 -2.812198e-03 +9.998921e-01 -2.812198e-03 +1.078993e-04 +2.812198e-03
6.954987e+07 +1.079972e-04 +2.829539e-03 +9.998920e-01 -2.829539e-03 +9.998920e-01 -2.829539e-03 +1.079972e-04 +2.829539e-03
7.161434e+07 +1.085578e-04 +2.926914e-03 +9.998914e-01 -2.926914e-03 +9.998914e-01 -2.926914e-03 +1.085578e-04 +2.926914e-03
7.229413e+07 +1.087460e-04 +2.958895e-03 +9.998913e-01 -2.958895e-03 +9.998913e-01 -2.958895e-03 +1.087460e-04 +2.958895e-03
7.413102e+07 +1.092638e-04 +3.045121e-03 +9.998907e-01 -3.045121e-03 +9.998907e-01 -3.045121e-03 +1.092638e-04 +3.045121e-03
7.514667e+07 +1.095557e-04 +3.092683e-03 +9.998904e-01 -3.092683e-03 +9.998904e-01 -3.092683e-03 +1.095557e-04 +3.092683e-03
7.673615e+07 +1.100207e-04 +3.166961e-03 +9.998900e-01 -3.166961e-03 +9.998900e-01 -3.166961e-03 +1.100207e-04 +3.166961e-03
7.811177e+07 +1.104312e-04 +3.231102e-03 +9.998896e-01 -3.231102e-03 +9.998896e-01 -3.231102e-03 +1.104312e-04 +3.231102e-03
7.943282e+07 +1.108323e-04 +3.292580e-03 +9.998892e-01 -3.292580e-03 +9.998892e-01 -3.292580e-03 +1.108323e-04 +3.292580e-03
8.119386e+07 +1.113776e-04 +3.374361e-03 +9.998886e-01 -3.374361e-03 +9.998886e-01 -3.374361e-03 +1.113776e-04 +3.374361e-03
8.222426e+07 +1.117023e-04 +3.422125e-03 +9.998883e-01 -3.422125e-03 +9.998883e-01 -3.422125e-03 +1.117023e-04 +3.422125e-03
8.439757e+07 +1.124006e-04 +3.522673e-03 +9.998876e-01 -3.522673e-03 +9.998876e-01 -3.522673e-03 +1.124006e-04 +3.522673e-03
8.511380e+07 +1.126348e-04 +3.555754e-03 +9.998874e-01 -3.555754e-03 +9.998874e-01 -3.555754e-03 +1.126348e-04 +3.555754e-03
8.772768e+07 +1.135064e-04 +3.676261e-03 +9.998865e-01 -3.676261e-03 +9.998865e-01 -3.676261e-03 +1.135064e-04 +3.676261e-03
8.810489e+07 +1.136344e-04 +3.693624e-03 +9.998864e-01 -3.693624e-03 +9.998864e-01 -3.693624e-03 +1.136344e-04 +3.693624e-03
9.118919e+07 +1.147016e-04 +3.835354e-03 +9.998853e-01 -3.835354e-03 +9.998853e-01 -3.835354e-03 +1.147016e-04 +3.835354e-03
9.120108e+07 +1.147058e-04 +3.835900e-03 +9.998853e-01 -3.835900e-03 +9.998853e-01 -3.835900e-03 +1.147058e-04 +3.835900e-03
9.440609e+07 +1.158541e-04 +3.982751e-03 +9.998841e-01 -3.982751e-03 +9.998841e-01 -3.982751e-03 +1.158541e-04 +3.982751e-03
9.478729e+07 +1.159934e-04 +4.000191e-03 +9.998840e-01 -4.000191e-03 +9.998840e-01 -4.000191e-03 +1.159934e-04 +4.000191e-03
9.772372e+07 +1.170849e-04 +4.134354e-03 +9.998829e-01 -4.134354e-03 +9.998829e-01 -4.134354e-03 +1.170849e-04 +4.134354e-03
9.852736e+07 +1.173894e-04 +4.171019e-03 +9.998826e-01 -4.171019e-03 +9.998826e-01 -4.171019e-03 +1.173894e-04 +4.171019e-03
1.011579e+08 +1.184039e-04 +4.290888e-03 +9.998816e-01 -4.290888e-03 +9.998816e-01 -4.290888e-03 +1.184039e-04 +4.290888e-03
1.024150e+08 +1.188982e-04 +4.348093e-03 +9.998811e-01 -4.348093e-03 +9.998811e-01 -4.348093e-03 +1.188982e-04 +4.348093e-03
1.047129e+08 +1.198175e-04 +4.452541e-03 +9.998802e-01 -4.452541e-03 +9.998802e-01 -4.452541e-03 +1.198175e-04 +4.452541e-03
1.064560e+08 +1.205286e-04 +4.531678e-03 +9.998795e-01 -4.531678e-03 +9.998795e-01 -4.531678e-03 +1.205286e-04 +4.531678e-03
1.083927e+08 +1.213324e-04 +4.619505e-03 +9.998787e-01 -4.619505e-03 +9.998787e-01 -4.619505e-03 +1.213324e-04 +4.619505e-03
1.106565e+08 +1.222905e-04 +4.722050e-03 +9.998777e-01 -4.722050e-03 +9.998777e-01 -4.722050e-03 +1.222905e-04 +4.722050e-03
1.122018e+08 +1.229559e-04 +4.791979e-03 +9.998770e-01 -4.791979e-03 +9.998770e-01 -4.791979e-03 +1.229559e-04 +4.791979e-03
1.150227e+08 +1.241944e-04 +4.919493e-03 +9.998758e-01 -4.919493e-03 +9.998758e-01 -4.919493e-03 +1.241944e-04 +4.919493e-03
1.161449e+08 +1.246957e-04 +4.970169e-03 +9.998753e-01 -4.970169e-03 +9.998753e-01 -4.970169e-03 +1.246957e-04 +4.970169e-03
1.195612e+08 +1.262518e-04 +5.124303e-03 +9.998737e-01 -5.124303e-03 +9.998737e-01 -5.124303e-03 +1.262518e-04 +5.124303e-03
1.202264e+08 +1.265600e-04 +5.154288e-03 +9.998734e-01 -5.154288e-03 +9.998734e-01 -5.154288e-03 +1.265600e-04 +5.154288e-03
1.242788e+08 +1.284749e-04 +5.336786e-03 +9.998715e-01 -5.336786e-03 +9.998715e-01 -5.336786e-03 +1.284749e-04 +5.336786e-03
1.244515e+08 +1.285579e-04 +5.344554e-03 +9.998714e-01 -5.344554e-03 +9.998714e-01 -5.344554e-03 +1.285579e-04 +5.344554e-03
1.288250e+08 +1.306989e-04 +5.541195e-03 +9.998693e-01 -5.541195e-03 +9.998693e-01 -5.541195e-03 +1.306989e-04 +5.541195e-03
1.291826e+08 +1.308772e-04 +5.557261e-03 +9.998691e-01 -5.557261e-03 +9.998691e-01 -5.557261e-03 +1.308772e-04 +5.557261e-03
1.333521e+08 +1.329930e-04 +5.744446e-03 +9.998670e-01 -5.744446e-03 +9.998670e-01 -5.744446e-03 +1.329930e-04 +5.744446e-03
1.342798e+08 +1.334729e-04 +5.786057e-03 +9.998665e-01 -5.786057e-03 +9.998665e-01 -5.786057e-03 +1.334729e-04 +5.786057e-03
1.380384e+08 +1.354514e-04 +5.954547e-03 +9.998645e-01 -5.954547e-03 +9.998645e-01 -5.954547e-03 +1.354514e-04 +5.954547e-03
1.395781e+08 +1.362777e-04 +6.023517e-03 +9.998637e-01 -6.023517e-03 +9.998637e-01 -6.023517e-03 +1.362777e-04 +6.023517e-03
1.428894e+08 +1.380858e-04 +6.171751e-03 +9.998619e-01 -6.171751e-03 +9.998619e-01 -6.171751e-03 +1.380858e-04 +6.171751e-03
1.450855e+08 +1.393083e-04 +6.269996e-03 +9.998607e-01 -6.269996e-03 +9.998607e-01 -6.269996e-03 +1.393083e-04 +6.269996e-03
1.479108e+08 +1.409086e-04 +6.396315e-03 +9.998591e-01 -6.396315e-03 +9.998591e-01 -6.396315e-03 +1.409086e-04 +6.396315e-03
1.508102e+08 +1.425830e-04 +6.525863e-03 +9.998574e-01 -6.525863e-03 +9.998574e-01 -6.525863e-03 +1.425830e-04 +6.525863e-03
1.531087e+08 +1.439334e-04 +6.628508e-03 +9.998561e-01 -6.628508e-03 +9.998561e-01 -6.628508e-03 +1.439334e-04 +6.628508e-03
1.567608e+08 +1.461212e-04 +6.791501e-03 +9.998539e-01 -6.791501e-03 +9.998539e-01 -6.791501e-03 +1.461212e-04 +6.791501e-03
1.584893e+08 +1.471747e-04 +6.868606e-03 +9.998528e-01 -6.868606e-03 +9.998528e-01 -6.868606e-03 +1.471747e-04 +6.868606e-03
1.629462e+08 +1.499443e-04 +7.067308e-03 +9.998501e-01 -7.067308e-03 +9.998501e-01 -7.067308e-03 +1.499443e-04 +7.067308e-03
1.640590e+08 +1.506478e-04 +7.116896e-03 +9.998494e-01 -7.116896e-03 +9.998494e-01 -7.116896e-03 +1.506478e-04 +7.116896e-03
1.693756e+08 +1.540752e-04 +7.353695e-03 +9.998459e-01 -7.353695e-03 +9.998459e-01 -7.353695e-03 +1.540752e-04 +7.353695e-03
1.698244e+08 +1.543694e-04 +7.373672e-03 +9.998456e-01 -7.373672e-03 +9.998456e-01 -7.373672e-03 +1.543694e-04 +7.373672e-03
1.757924e+08 +1.583573e-04 +7.639242e-03 +9.998416e-01 -7.639242e-03 +9.998416e-01 -7.639242e-03 +1.583573e-04 +7.639242e-03
1.760588e+08 +1.585385e-04 +7.651092e-03 +9.998415e-01 -7.651092e-03 +9.998415e-01 -7.651092e-03 +1.585385e-04 +7.651092e-03
1.819701e+08 +1.626303e-04 +7.913921e-03 +9.998374e-01 -7.913921e-03 +9.998374e-01 -7.913921e-03 +1.626303e-04 +7.913921e-03
1.830056e+08 +1.633610e-04 +7.959943e-03 +9.998366e-01 -7.959943e-03 +9.998366e-01 -7.959943e-03 +1.633610e-04 +7.959943e-03
1.883649e+08 +1.672091e-04 +8.198038e-03 +9.998328e-01 -8.198038e-03 +9.998328e-01 -8.198038e-03 +1.672091e-04 +8.198038e-03
1.902265e+08 +1.685717e-04 +8.280710e-03 +9.998314e-01 -8.280710e-03 +9.998314e-01 -8.280710e-03 +1.685717e-04 +8.280710e-03
1.949845e+08 +1.721153e-04 +8.491929e-03 +9.998279e-01 -8.491929e-03 +9.998279e-01 -8.491929e-03 +1.721153e-04 +8.491929e-03
2.018366e+08 +1.773724e-04 +8.795945e-03 +9.998226e-01 -8.795945e-03 +9.998226e-01 -8.795945e-03 +1.773724e-04 +8.795945e-03
2.089296e+08 +1.830055e-04 +9.110449e-03 +9.998170e-01 -9.110449e-03 +9.998170e-01 -9.110449e-03 +1.830055e-04 +9.110449e-03
2.162719e+08 +1.890414e-04 +9.435815e-03 +9.998110e-01 -9.435815e-03 +9.998110e-01 -9.435815e-03 +1.890414e-04 +9.435815e-03
2.238721e+08 +1.955091e-04 +9.772430e-03 +9.998045e-01 -9.772430e-03 +9.998045e-01 -9.772430e-03 +1.955091e-04 +9.772430e-03
2.317395e+08 +2.024392e-04 +1.012069e-02 +9.997976e-01 -1.012069e-02 +9.997976e-01 -1.012069e-02 +2.024392e-04 +1.012069e-02
2.398833e+08 +2.098649e-04 +1.048102e-02 +9.997901e-01 -1.048102e-02 +9.997901e-01 -1.048102e-02 +2.098649e-04 +1.048102e-02
2.483133e+08 +2.178216e-04 +1.085385e-02 +9.997822e-01 -1.085385e-02 +9.997822e-01 -1.085385e-02 +2.178216e-04 +1.085385e-02
2.570396e+08 +2.263473e-04 +1.123960e-02 +9.997737e-01 -1.123960e-02 +9.997737e-01 -1.123960e-02 +2.263473e-04 +1.123960e-02
2.660725e+08 +2.354826e-04 +1.163876e-02 +9.997645e-01 -1.163876e-02 +9.997645e-01 -1.163876e-02 +2.354826e-04 +1.163876e-02
2.754229e+08 +2.452711e-04 +1.205178e-02 +9.997547e-01 -1.205178e-02 +9.997547e-01 -1.205178e-02 +2.452711e-04 +1.205178e-02
2.851018e+08 +2.557595e-04 +1.247917e-02 +9.997442e-01 -1.247917e-02 +9.997442e-01 -1.247917e-02 +2.557595e-04 +1.247917e-02
2.951209e+08 +2.669978e-04 +1.292142e-02 +9.997330e-01 -1.292142e-02 +9.997330e-01 -1.292142e-02 +2.669978e-04 +1.292142e-02
3.054921e+08 +2.790396e-04 +1.337907e-02 +9.997210e-01 -1.337907e-02 +9.997210e-01 -1.337907e-02 +2.790396e-04 +1.337907e-02
3.162278e+08 +2.919423e-04 +1.385266e-02 +9.997081e-01 -1.385266e-02 +9.997081e-01 -1.385266e-02 +2.919423e-04 +1.385266e-02
3.273407e+08 +3.057675e-04 +1.434275e-02 +9.996942e-01 -1.434275e-02 +9.996942e-01 -1.434275e-02 +3.057675e-04 +1.434275e-02
3.388442e+08 +3.205810e-04 +1.484993e-02 +9.996794e-01 -1.484993e-02 +9.996794e-01 -1.484993e-02 +3.205810e-04 +1.484993e-02
3.507519e+08 +3.364536e-04 +1.537479e-02 +9.996635e-01 -1.537479e-02 +9.996635e-01 -1.537479e-02 +3.364536e-04 +1.537479e-02
3.630781e+08 +3.534608e-04 +1.591795e-02 +9.996465e-01 -1.591795e-02 +9.996465e-01 -1.591795e-02 +3.534608e-04 +1.591795e-02
3.758374e+08 +3.716837e-04 +1.648007e-02 +9.996283e-01 -1.648007e-02 +9.996283e-01 -1.648007e-02 +3.716837e-04 +1.648007e-02
3.890451e+08 +3.912091e-04 +1.706181e-02 +9.996088e-01 -1.706181e-02 +9.996088e-01 -1.706181e-02 +3.912091e-04 +1.706181e-02
4.027170e+08 +4.121302e-04 +1.766385e-02 +9.995879e-01 -1.766385e-02 +9.995879e-01 -1.766385e-02 +4.121302e-04 +1.766385e-02
4.168694e+08 +4.345466e-04 +1.828692e-02 +9.995655e-01 -1.828692e-02 +9.995655e-01 -1.828692e-02 +4.345466e-04 +1.828692e-02
4.315191e+08 +4.585651e-04 +1.893174e-02 +9.995414e-01 -1.893174e-02 +9.995414e-01 -1.893174e-02 +4.585651e-04 +1.893174e-02
4.466836e+08 +4.843002e-04 +1.959908e-02 +9.995157e-01 -1.959908e-02 +9.995157e-01 -1.959908e-02 +4.843002e-04 +1.959908e-02
4.623810e+08 +5.118743e-04 +2.028974e-02 +9.994881e-01 -2.028974e-02 +9.994881e-01 -2.028974e-02 +5.118743e-04 +2.028974e-02
4.786301e+08 +5.414188e-04 +2.100452e-02 +9.994586e-01 -2.100452e-02 +9.994586e-01 -2.100452e-02 +5.414188e-04 +2.100452e-02
4.954502e+08 +5.730744e-04 +2.174427e-02 +9.994269e-01 -2.174427e-02 +9.994269e-01 -2.174427e-02 +5.730744e-04 +2.174427e-02
5.128614e+08 +6.069918e-04 +2.250987e-02 +9.993930e-01 -2.250987e-02 +9.993930e-01 -2.250987e-02 +6.069918e-04 +2.250987e-02
5.308844e+08 +6.433323e-04 +2.330221e-02 +9.993567e-01 -2.330221e-02 +9.993567e-01 -2.330221e-02 +6.433323e-04 +2.330221e-02
5.495409e+08 +6.822690e-04 +2.412223e-02 +9.993177e-01 -2.412223e-02 +9.993177e-01 -2.412223e-02 +6.822690e-04 +2.412223e-02
5.688529e+08 +7.239871e-04 +2.497089e-02 +9.992760e-01 -2.497089e-02 +9.992760e-01 -2.497089e-02 +7.239871e-04 +2.497089e-02
5.888437e+08 +7.686850e-04 +2.584920e-02 +9.992313e-01 -2.584920e-02 +9.992313e-01 -2.584920e-02 +7.686850e-04 +2.584920e-02
6.095369e+08 +8.165751e-04 +2.675818e-02 +9.991834e-01 -2.675818e-02 +9.991834e-01 -2.675818e-02 +8.165751e-04 +2.675818e-02
6.309573e+08 +8.678853e-04 +2.769890e-02 +9.991321e-01 -2.769890e-02 +9.991321e-01 -2.769890e-02 +8.678853e-04 +2.769890e-02
6.531306e+08 +9.228593e-04 +2.867246e-02 +9.990771e-01 -2.867246e-02 +9.990771e-01 -2.867246e-02 +9.228593e-04 +2.867246e-02
6.760830e+08 +9.817583e-04 +2.968000e-02 +9.990182e-01 -2.968000e-02 +9.990182e-01 -2.968000e-02 +9.817583e-04 +2.968000e-02
6.998420e+08 +1.044862e-03 +3.072271e-02 +9.989551e-01 -3.072271e-02 +9.989551e-01 -3.072271e-02 +1.044862e-03 +3.072271e-02
7.244360e+08 +1.112470e-03 +3.180179e-02 +9.988875e-01 -3.180179e-02 +9.988875e-01 -3.180179e-02 +1.112470e-03 +3.180179e-02
7.498942e+08 +1.184903e-03 +3.291850e-02 +9.988151e-01 -3.291850e-02 +9.988151e-01 -3.291850e-02 +1.184903e-03 +3.291850e-02
7.762471e+08 +1.262505e-03 +3.407414e-02 +9.987375e-01 -3.407414e-02 +9.987375e-01 -3.407414e-02 +1.262505e-03 +3.407414e-02
8.035261e+08 +1.345643e-03 +3.527006e-02 +9.986544e-01 -3.527006e-02 +9.986544e-01 -3.527006e-02 +1.345643e-03 +3.527006e-02
8.317638e+08 +1.434713e-03 +3.650764e-02 +9.985653e-01 -3.650764e-02 +9.985653e-01 -3.650764e-02 +1.434713e-03 +3.650764e-02
8.609938e+08 +1.530134e-03 +3.778830e-02 +9.984699e-01 -3.778830e-02 +9.984699e-01 -3.778830e-02 +1.530134e-03 +3.778830e-02
8.912509e+08 +1.632360e-03 +3.911354e-02 +9.983676e-01 -3.911354e-02 +9.983676e-01 -3.911354e-02 +1.632360e-03 +3.911354e-02
9.225714e+08 +1.741874e-03 +4.048486e-02 +9.982581e-01 -4.048486e-02 +9.982581e-01 -4.048486e-02 +1.741874e-03 +4.048486e-02
9.549926e+08 +1.859193e-03 +4.190385e-02 +9.981408e-01 -4.190385e-02 +9.981408e-01 -4.190385e-02 +1.859193e-03 +4.190385e-02
9.885531e+08 +1.984873e-03 +4.337213e-02 +9.980151e-01 -4.337213e-02 +9.980151e-01 -4.337213e-02 +1.984873e-03 +4.337213e-02
1.023293e+09 +2.119506e-03 +4.489137e-02 +9.978805e-01 -4.489137e-02 +9.978805e-01 -4.489137e-02 +2.119506e-03 +4.489137e-02
1.059254e+09 +2.263727e-03 +4.646331e-02 +9.977363e-01 -4.646331e-02 +9.977363e-01 -4.646331e-02 +2.263727e-03 +4.646331e-02
1.096478e+09 +2.418217e-03 +4.808972e-02 +9.975818e-01 -4.808972e-02 +9.975818e-01 -4.808972e-02 +2.418217e-03 +4.808972e-02
1.135011e+09 +2.583703e-03 +4.977244e-02 +9.974163e-01 -4.977244e-02 +9.974163e-01 -4.977244e-02 +2.583703e-03 +4.977244e-02
1.174898e+09 +2.760963e-03 +5.151336e-02 +9.972390e-01 -5.151336e-02 +9.972390e-01 -5.151336e-02 +2.760963e-03 +5.151336e-02
1.216186e+09 +2.950831e-03 +5.331443e-02 +9.970492e-01 -5.331443e-02 +9.970492e-01 -5.331443e-02 +2.950831e-03 +5.331443e-02
1.258925e+09 +3.154198e-03 +5.517766e-02 +9.968458e-01 -5.517766e-02 +9.968458e-01 -5.517766e-02 +3.154198e-03 +5.517766e-02
1.303167e+09 +3.372017e-03 +5.710511e-02 +9.966280e-01 -5.710511e-02 +9.966280e-01 -5.710511e-02 +3.372017e-03 +5.710511e-02
1.348963e+09 +3.605310e-03 +5.909892e-02 +9.963947e-01 -5.909892e-02 +9.963947e-01 -5.909892e-02 +3.605310e-03 +5.909892e-02
1.396368e+09 +3.855165e-03 +6.116125e-02 +9.961448e-01 -6.116125e-02 +9.961448e-01 -6.116125e-02 +3.855165e-03 +6.116125e-02
1.445440e+09 +4.122752e-03 +6.329437e-02 +9.958772e-01 -6.329437e-02 +9.958772e-01 -6.329437e-02 +4.122752e-03 +6.329437e-02
1.496236e+09 +4.409316e-03 +6.550057e-02 +9.955907e-01 -6.550057e-02 +9.955907e-01 -6.550057e-02 +4.409316e-03 +6.550057e-02
1.548817e+09 +4.716193e-03 +6.778224e-02 +9.952838e-01 -6.778224e-02 +9.952838e-01 -6.778224e-02 +4.716193e-03 +6.778224e-02
1.603245e+09 +5.044807e-03 +7.014179e-02 +9.949552e-01 -7.014179e-02 +9.949552e-01 -7.014179e-02 +5.044807e-03 +7.014179e-02
1.659587e+09 +5.396682e-03 +7.258173e-02 +9.946033e-01 -7.258173e-02 +9.946033e-01 -7.258173e-02 +5.396682e-03 +7.258173e-02
1.717908e+09 +5.773448e-03 +7.510461e-02 +9.942266e-01 -7.510461e-02 +9.942266e-01 -7.510461e-02 +5.773448e-03 +7.510461e-02
1.778279e+09 +6.176842e-03 +7.771304e-02 +9.938232e-01 -7.771304e-02 +9.938232e-01 -7.771304e-02 +6.176842e-03 +7.771304e-02
1.840772e+09 +6.608724e-03 +8.040970e-02 +9.933913e-01 -8.040970e-02 +9.933913e-01 -8.040970e-02 +6.608724e-03 +8.040970e-02
1.905461e+09 +7.071078e-03 +8.319732e-02 +9.929289e-01 -8.319732e-02 +9.929289e-01 -8.319732e-02 +7.071078e-03 +8.319732e-02
1.972423e+09 +7.566021e-03 +8.607870e-02 +9.924340e-01 -8.607870e-02 +9.924340e-01 -8.607870e-02 +7.566021e-03 +8.607870e-02
2.041738e+09 +8.095815e-03 +8.905668e-02 +9.919042e-01 -8.905668e-02 +9.919042e-01 -8.905668e-02 +8.095815e-03 +8.905668e-02
2.113489e+09 +8.662872e-03 +9.213416e-02 +9.913371e-01 -9.213416e-02 +9.913371e-01 -9.213416e-02 +8.662872e-03 +9.213416e-02
2.187762e+09 +9.269766e-03 +9.531408e-02 +9.907302e-01 -9.531408e-02 +9.907302e-01 -9.531408e-02 +9.269766e-03 +9.531408e-02
2.264644e+09 +9.919240e-03 +9.859944e-02 +9.900808e-01 -9.859944e-02 +9.900808e-01 -9.859944e-02 +9.919240e-03 +9.859944e-02
2.344229e+09 +1.061422e-02 +1.019933e-01 +9.893858e-01 -1.019933e-01 +9.893858e-01 -1.019933e-01 +1.061422e-02 +1.019933e-01
2.426610e+09 +1.135782e-02 +1.054987e-01 +9.886422e-01 -1.054987e-01 +9.886422e-01 -1.054987e-01 +1.135782e-02 +1.054987e-01
2.511886e+09 +1.215337e-02 +1.091187e-01 +9.878466e-01 -1.091187e-01 +9.878466e-01 -1.091187e-01 +1.215337e-02 +1.091187e-01
2.600160e+09 +1.300439e-02 +1.128565e-01 +9.869956e-01 -1.128565e-01 +9.869956e-01 -1.128565e-01 +1.300439e-02 +1.128565e-01
2.691535e+09 +1.391465e-02 +1.167152e-01 +9.860854e-01 -1.167152e-01 +9.860854e-01 -1.167152e-01 +1.391465e-02 +1.167152e-01
2.786121e+09 +1.488815e-02 +1.206979e-01 +9.851119e-01 -1.206979e-01 +9.851119e-01 -1.206979e-01 +1.488815e-02 +1.206979e-01
2.884032e+09 +1.592914e-02 +1.248079e-01 +9.840709e-01 -1.248079e-01 +9.840709e-01 -1.248079e-01 +1.592914e-02 +1.248079e-01
2.985383e+09 +1.704214e-02 +1.290481e-01 +9.829579e-01 -1.290481e-01 +9.829579e-01 -1.290481e-01 +1.704214e-02 +1.290481e-01
3.090295e+09 +1.823196e-02 +1.334218e-01 +9.817680e-01 -1.334218e-01 +9.817680e-01 -1.334218e-01 +1.823196e-02 +1.334218e-01
3.198895e+09 +1.950368e-02 +1.379320e-01 +9.804963e-01 -1.379320e-01 +9.804963e-01 -1.379320e-01 +1.950368e-02 +1.379320e-01
3.311311e+09 +2.086269e-02 +1.425817e-01 +9.791373e-01 -1.425817e-01 +9.791373e-01 -1.425817e-01 +2.086269e-02 +1.425817e-01
3.427678e+09 +2.231473e-02 +1.473738e-01 +9.776853e-01 -1.473738e-01 +9.776853e-01 -1.473738e-01 +2.231473e-02 +1.473738e-01
3.548134e+09 +2.386585e-02 +1.523111e-01 +9.761342e-01 -1.523111e-01 +9.761342e-01 -1.523111e-01 +2.386585e-02 +1.523111e-01
3.672823e+09 +2.552245e-02 +1.573964e-01 +9.744776e-01 -1.573964e-01 +9.744776e-01 -1.573964e-01 +2.552245e-02 +1.573964e-01
3.801894e+09 +2.729129e-02 +1.626322e-01 +9.727087e-01 -1.626322e-01 +9.727087e-01 -1.626322e-01 +2.729129e-02 +1.626322e-01
3.935501e+09 +2.917953e-02 +1.680209e-01 +9.708205e-01 -1.680209e-01 +9.708205e-01 -1.680209e-01 +2.917953e-02 +1.680209e-01
4.073803e+09 +3.119470e-02 +1.735647e-01 +9.688053e-01 -1.735647e-01 +9.688053e-01 -1.735647e-01 +3.119470e-02 +1.735647e-01
4.216965e+09 +3.334473e-02 +1.792657e-01 +9.666553e-01 -1.792657e-01 +9.666553e-01 -1.792657e-01 +3.334473e-02 +1.792657e-01
4.365158e+09 +3.563796e-02 +1.851255e-01 +9.643620e-01 -1.851255e-01 +9.643620e-01 -1.851255e-01 +3.563796e-02 +1.851255e-01
4.518559e+09 +3.808315e-02 +1.911456e-01 +9.619168e-01 -1.911456e-01 +9.619168e-01 -1.911456e-01 +3.808315e-02 +1.911456e-01
4.677351e+09 +4.068950e-02 +1.973270e-01 +9.593105e-01 -1.973270e-01 +9.593105e-01 -1.973270e-01 +4.068950e-02 +1.973270e-01
4.841724e+09 +4.346662e-02 +2.036704e-01 +9.565334e-01 -2.036704e-01 +9.565334e-01 -2.036704e-01 +4.346662e-02 +2.036704e-01
5.011872e+09 +4.642457e-02 +2.101761e-01 +9.535754e-01 -2.101761e-01 +9.535754e-01 -2.101761e-01 +4.642457e-02 +2.101761e-01
5.188000e+09 +4.957384e-02 +2.168438e-01 +9.504262e-01 -2.168438e-01 +9.504262e-01 -2.168438e-01 +4.957384e-02 +2.168438e-01
5.370318e+09 +5.292533e-02 +2.236728e-01 +9.470747e-01 -2.236728e-01 +9.470747e-01 -2.236728e-01 +5.292533e-02 +2.236728e-01
5.559043e+09 +5.649038e-02 +2.306618e-01 +9.435096e-01 -2.306618e-01 +9.435096e-01 -2.306618e-01 +5.649038e-02 +2.306618e-01
5.754399e+09 +6.028074e-02 +2.378088e-01 +9.397193e-01 -2.378088e-01 +9.397193e-01 -2.378088e-01 +6.028074e-02 +2.378088e-01
5.956621e+09 +6.430853e-02 +2.451110e-01 +9.356915e-01 -2.451110e-01 +9.356915e-01 -2.451110e-01 +6.430853e-02 +2.451110e-01
6.165950e+09 +6.858623e-02 +2.525649e-01 +9.314138e-01 -2.525649e-01 +9.314138e-01 -2.525649e-01 +6.858623e-02 +2.525649e-01
6.382635e+09 +7.312668e-02 +2.601663e-01 +9.268733e-01 -2.601663e-01 +9.268733e-01 -2.601663e-01 +7.312668e-02 +2.601663e-01
6.606934e+09 +7.794299e-02 +2.679098e-01 +9.220570e-01 -2.679098e-01 +9.220570e-01 -2.679098e-01 +7.794299e-02 +2.679098e-01
6.839116e+09 +8.304850e-02 +2.757893e-01 +9.169515e-01 -2.757893e-01 +9.169515e-01 -2.757893e-01 +8.304850e-02 +2.757893e-01
7.079458e+09 +8.845678e-02 +2.837975e-01 +9.115432e-01 -2.837975e-01 +9.115432e-01 -2.837975e-01 +8.845678e-02 +2.837975e-01
7.328245e+09 +9.418150e-02 +2.919260e-01 +9.058185e-01 -2.919260e-01 +9.058185e-01 -2.919260e-01 +9.418150e-02 +2.919260e-01
7.585776e+09 +1.002364e-01 +3.001651e-01 +8.997636e-01 -3.001651e-01 +8.997636e-01 -3.001651e-01 +1.002364e-01 +3.001651e-01
7.852356e+09 +1.066351e-01 +3.085040e-01 +8.933649e-01 -3.085040e-01 +8.933649e-01 -3.085040e-01 +1.066351e-01 +3.085040e-01
8.128305e+09 +1.133912e-01 +3.169306e-01 +8.866088e-01 -3.169306e-01 +8.866088e-01 -3.169306e-01 +1.133912e-01 +3.169306e-01
8.413951e+09 +1.205180e-01 +3.254312e-01 +8.794820e-01 -3.254312e-01 +8.794820e-01 -3.254312e-01 +1.205180e-01 +3.254312e-01
8.709636e+09 +1.280284e-01 +3.339910e-01 +8.719716e-01 -3.339910e-01 +8.719716e-01 -3.339910e-01 +1.280284e-01 +3.339910e-01
9.015711e+09 +1.359349e-01 +3.425934e-01 +8.640651e-01 -3.425934e-01 +8.640651e-01 -3.425934e-01 +1.359349e-01 +3.425934e-01
9.332543e+09 +1.442493e-01 +3.512206e-01 +8.557507e-01 -3.512206e-01 +8.557507e-01 -3.512206e-01 +1.442493e-01 +3.512206e-01
9.660509e+09 +1.529826e-01 +3.598530e-01 +8.470174e-01 -3.598530e-01 +8.470174e-01 -3.598530e-01 +1.529826e-01 +3.598530e-01
1.000000e+10 +1.621447e-01 +3.684698e-01 +8.378553e-01 -3.684698e-01 +8.378553e-01 -3.684698e-01 +1.621447e-01 +3.684698e-01
