! Touchstone 2-port S-parameters  (series-through model)
! Part: GRM188R71C104_FROM_DATASHEET_GEOMETRY
! Generated: 2026-06-14 19:33 UTC  by s2p tool
! Reference impedance: 50.0 Ohm
! ESL computed from case 0603: 0.700 nH; SRF computed = 19.02 MHz [GEOMETRY ESTIMATE]
! ESTIMATED / behavioral model - NOT manufacturer-measured data.
# Hz S RI R 50
! freq        ReS11      ImS11      ReS21      ImS21      ReS12      ImS12      ReS22      ImS22
1.000000e+04 +7.169321e-01 -4.504263e-01 +2.830679e-01 +4.504263e-01 +2.830679e-01 +4.504263e-01 +7.169321e-01 -4.504263e-01
1.035142e+04 +7.027071e-01 -4.570015e-01 +2.972929e-01 +4.570015e-01 +2.972929e-01 +4.570015e-01 +7.027071e-01 -4.570015e-01
1.071519e+04 +6.880784e-01 -4.632107e-01 +3.119216e-01 +4.632107e-01 +3.119216e-01 +4.632107e-01 +6.880784e-01 -4.632107e-01
1.109175e+04 +6.730649e-01 -4.690236e-01 +3.269351e-01 +4.690236e-01 +3.269351e-01 +4.690236e-01 +6.730649e-01 -4.690236e-01
1.148154e+04 +6.576883e-01 -4.744112e-01 +3.423117e-01 +4.744112e-01 +3.423117e-01 +4.744112e-01 +6.576883e-01 -4.744112e-01
1.188502e+04 +6.419733e-01 -4.793454e-01 +3.580267e-01 +4.793454e-01 +3.580267e-01 +4.793454e-01 +6.419733e-01 -4.793454e-01
1.230269e+04 +6.259473e-01 -4.838000e-01 +3.740527e-01 +4.838000e-01 +3.740527e-01 +4.838000e-01 +6.259473e-01 -4.838000e-01
1.273503e+04 +6.096403e-01 -4.877509e-01 +3.903597e-01 +4.877509e-01 +3.903597e-01 +4.877509e-01 +6.096403e-01 -4.877509e-01
1.318257e+04 +5.930846e-01 -4.911760e-01 +4.069154e-01 +4.911760e-01 +4.069154e-01 +4.911760e-01 +5.930846e-01 -4.911760e-01
1.364583e+04 +5.763150e-01 -4.940560e-01 +4.236850e-01 +4.940560e-01 +4.236850e-01 +4.940560e-01 +5.763150e-01 -4.940560e-01
1.412538e+04 +5.593679e-01 -4.963742e-01 +4.406321e-01 +4.963742e-01 +4.406321e-01 +4.963742e-01 +5.593679e-01 -4.963742e-01
1.462177e+04 +5.422814e-01 -4.981172e-01 +4.577186e-01 +4.981172e-01 +4.577186e-01 +4.981172e-01 +5.422814e-01 -4.981172e-01
1.513561e+04 +5.250952e-01 -4.992747e-01 +4.749048e-01 +4.992747e-01 +4.749048e-01 +4.992747e-01 +5.250952e-01 -4.992747e-01
1.566751e+04 +5.078494e-01 -4.998400e-01 +4.921506e-01 +4.998400e-01 +4.921506e-01 +4.998400e-01 +5.078494e-01 -4.998400e-01
1.621810e+04 +4.905853e-01 -4.998095e-01 +5.094147e-01 +4.998095e-01 +5.094147e-01 +4.998095e-01 +4.905853e-01 -4.998095e-01
1.678804e+04 +4.733437e-01 -4.991835e-01 +5.266563e-01 +4.991835e-01 +5.266563e-01 +4.991835e-01 +4.733437e-01 -4.991835e-01
1.737801e+04 +4.561658e-01 -4.979657e-01 +5.438342e-01 +4.979657e-01 +5.438342e-01 +4.979657e-01 +4.561658e-01 -4.979657e-01
1.798871e+04 +4.390918e-01 -4.961633e-01 +5.609082e-01 +4.961633e-01 +5.609082e-01 +4.961633e-01 +4.390918e-01 -4.961633e-01
1.862087e+04 +4.221611e-01 -4.937870e-01 +5.778389e-01 +4.937870e-01 +5.778389e-01 +4.937870e-01 +4.221611e-01 -4.937870e-01
1.927525e+04 +4.054117e-01 -4.908504e-01 +5.945883e-01 +4.908504e-01 +5.945883e-01 +4.908504e-01 +4.054117e-01 -4.908504e-01
1.995262e+04 +3.888799e-01 -4.873706e-01 +6.111201e-01 +4.873706e-01 +6.111201e-01 +4.873706e-01 +3.888799e-01 -4.873706e-01
2.065380e+04 +3.726002e-01 -4.833672e-01 +6.273998e-01 +4.833672e-01 +6.273998e-01 +4.833672e-01 +3.726002e-01 -4.833672e-01
2.137962e+04 +3.566046e-01 -4.788623e-01 +6.433954e-01 +4.788623e-01 +6.433954e-01 +4.788623e-01 +3.566046e-01 -4.788623e-01
2.213095e+04 +3.409230e-01 -4.738805e-01 +6.590770e-01 +4.738805e-01 +6.590770e-01 +4.738805e-01 +3.409230e-01 -4.738805e-01
2.290868e+04 +3.255824e-01 -4.684481e-01 +6.744176e-01 +4.684481e-01 +6.744176e-01 +4.684481e-01 +3.255824e-01 -4.684481e-01
2.371374e+04 +3.106073e-01 -4.625933e-01 +6.893927e-01 +4.625933e-01 +6.893927e-01 +4.625933e-01 +3.106073e-01 -4.625933e-01
2.454709e+04 +2.960190e-01 -4.563452e-01 +7.039810e-01 +4.563452e-01 +7.039810e-01 +4.563452e-01 +2.960190e-01 -4.563452e-01
2.540973e+04 +2.818362e-01 -4.497343e-01 +7.181638e-01 +4.497343e-01 +7.181638e-01 +4.497343e-01 +2.818362e-01 -4.497343e-01
2.630268e+04 +2.680747e-01 -4.427915e-01 +7.319253e-01 +4.427915e-01 +7.319253e-01 +4.427915e-01 +2.680747e-01 -4.427915e-01
2.722701e+04 +2.547472e-01 -4.355480e-01 +7.452528e-01 +4.355480e-01 +7.452528e-01 +4.355480e-01 +2.547472e-01 -4.355480e-01
2.818383e+04 +2.418639e-01 -4.280352e-01 +7.581361e-01 +4.280352e-01 +7.581361e-01 +4.280352e-01 +2.418639e-01 -4.280352e-01
2.917427e+04 +2.294321e-01 -4.202843e-01 +7.705679e-01 +4.202843e-01 +7.705679e-01 +4.202843e-01 +2.294321e-01 -4.202843e-01
3.019952e+04 +2.174565e-01 -4.123260e-01 +7.825435e-01 +4.123260e-01 +7.825435e-01 +4.123260e-01 +2.174565e-01 -4.123260e-01
3.126079e+04 +2.059395e-01 -4.041901e-01 +7.940605e-01 +4.041901e-01 +7.940605e-01 +4.041901e-01 +2.059395e-01 -4.041901e-01
3.235937e+04 +1.948812e-01 -3.959059e-01 +8.051188e-01 +3.959059e-01 +8.051188e-01 +3.959059e-01 +1.948812e-01 -3.959059e-01
3.349654e+04 +1.842794e-01 -3.875015e-01 +8.157206e-01 +3.875015e-01 +8.157206e-01 +3.875015e-01 +1.842794e-01 -3.875015e-01
3.467369e+04 +1.741303e-01 -3.790037e-01 +8.258697e-01 +3.790037e-01 +8.258697e-01 +3.790037e-01 +1.741303e-01 -3.790037e-01
3.589219e+04 +1.644280e-01 -3.704381e-01 +8.355720e-01 +3.704381e-01 +8.355720e-01 +3.704381e-01 +1.644280e-01 -3.704381e-01
3.715352e+04 +1.551654e-01 -3.618289e-01 +8.448346e-01 +3.618289e-01 +8.448346e-01 +3.618289e-01 +1.551654e-01 -3.618289e-01
3.845918e+04 +1.463339e-01 -3.531991e-01 +8.536661e-01 +3.531991e-01 +8.536661e-01 +3.531991e-01 +1.463339e-01 -3.531991e-01
3.981072e+04 +1.379236e-01 -3.445697e-01 +8.620764e-01 +3.445697e-01 +8.620764e-01 +3.445697e-01 +1.379236e-01 -3.445697e-01
4.120975e+04 +1.299238e-01 -3.359607e-01 +8.700762e-01 +3.359607e-01 +8.700762e-01 +3.359607e-01 +1.299238e-01 -3.359607e-01
4.265795e+04 +1.223228e-01 -3.273904e-01 +8.776772e-01 +3.273904e-01 +8.776772e-01 +3.273904e-01 +1.223228e-01 -3.273904e-01
4.415704e+04 +1.151084e-01 -3.188754e-01 +8.848916e-01 +3.188754e-01 +8.848916e-01 +3.188754e-01 +1.151084e-01 -3.188754e-01
4.570882e+04 +1.082677e-01 -3.104311e-01 +8.917323e-01 +3.104311e-01 +8.917323e-01 +3.104311e-01 +1.082677e-01 -3.104311e-01
4.731513e+04 +1.017875e-01 -3.020715e-01 +8.982125e-01 +3.020715e-01 +8.982125e-01 +3.020715e-01 +1.017875e-01 -3.020715e-01
4.897788e+04 +9.565422e-02 -2.938089e-01 +9.043458e-01 +2.938089e-01 +9.043458e-01 +2.938089e-01 +9.565422e-02 -2.938089e-01
5.069907e+04 +8.985430e-02 -2.856545e-01 +9.101457e-01 +2.856545e-01 +9.101457e-01 +2.856545e-01 +8.985430e-02 -2.856545e-01
5.248075e+04 +8.437398e-02 -2.776183e-01 +9.156260e-01 +2.776183e-01 +9.156260e-01 +2.776183e-01 +8.437398e-02 -2.776183e-01
5.432503e+04 +7.919958e-02 -2.697089e-01 +9.208004e-01 +2.697089e-01 +9.208004e-01 +2.697089e-01 +7.919958e-02 -2.697089e-01
5.623413e+04 +7.431750e-02 -2.619338e-01 +9.256825e-01 +2.619338e-01 +9.256825e-01 +2.619338e-01 +7.431750e-02 -2.619338e-01
5.821032e+04 +6.971436e-02 -2.542995e-01 +9.302856e-01 +2.542995e-01 +9.302856e-01 +2.542995e-01 +6.971436e-02 -2.542995e-01
6.025596e+04 +6.537695e-02 -2.468115e-01 +9.346230e-01 +2.468115e-01 +9.346230e-01 +2.468115e-01 +6.537695e-02 -2.468115e-01
6.237348e+04 +6.129241e-02 -2.394743e-01 +9.387076e-01 +2.394743e-01 +9.387076e-01 +2.394743e-01 +6.129241e-02 -2.394743e-01
6.456542e+04 +5.744816e-02 -2.322916e-01 +9.425518e-01 +2.322916e-01 +9.425518e-01 +2.322916e-01 +5.744816e-02 -2.322916e-01
6.683439e+04 +5.383197e-02 -2.252663e-01 +9.461680e-01 +2.252663e-01 +9.461680e-01 +2.252663e-01 +5.383197e-02 -2.252663e-01
6.918310e+04 +5.043204e-02 -2.184005e-01 +9.495680e-01 +2.184005e-01 +9.495680e-01 +2.184005e-01 +5.043204e-02 -2.184005e-01
7.161434e+04 +4.723691e-02 -2.116957e-01 +9.527631e-01 +2.116957e-01 +9.527631e-01 +2.116957e-01 +4.723691e-02 -2.116957e-01
7.413102e+04 +4.423559e-02 -2.051528e-01 +9.557644e-01 +2.051528e-01 +9.557644e-01 +2.051528e-01 +4.423559e-02 -2.051528e-01
7.673615e+04 +4.141749e-02 -1.987722e-01 +9.585825e-01 +1.987722e-01 +9.585825e-01 +1.987722e-01 +4.141749e-02 -1.987722e-01
7.943282e+04 +3.877245e-02 -1.925537e-01 +9.612276e-01 +1.925537e-01 +9.612276e-01 +1.925537e-01 +3.877245e-02 -1.925537e-01
8.222426e+04 +3.629075e-02 -1.864967e-01 +9.637093e-01 +1.864967e-01 +9.637093e-01 +1.864967e-01 +3.629075e-02 -1.864967e-01
8.511380e+04 +3.396310e-02 -1.806002e-01 +9.660369e-01 +1.806002e-01 +9.660369e-01 +1.806002e-01 +3.396310e-02 -1.806002e-01
8.810489e+04 +3.178066e-02 -1.748629e-01 +9.682193e-01 +1.748629e-01 +9.682193e-01 +1.748629e-01 +3.178066e-02 -1.748629e-01
9.120108e+04 +2.973496e-02 -1.692831e-01 +9.702650e-01 +1.692831e-01 +9.702650e-01 +1.692831e-01 +2.973496e-02 -1.692831e-01
9.440609e+04 +2.781799e-02 -1.638589e-01 +9.721820e-01 +1.638589e-01 +9.721820e-01 +1.638589e-01 +2.781799e-02 -1.638589e-01
9.772372e+04 +2.602213e-02 -1.585882e-01 +9.739779e-01 +1.585882e-01 +9.739779e-01 +1.585882e-01 +2.602213e-02 -1.585882e-01
1.011579e+05 +2.434014e-02 -1.534686e-01 +9.756599e-01 +1.534686e-01 +9.756599e-01 +1.534686e-01 +2.434014e-02 -1.534686e-01
1.047129e+05 +2.276516e-02 -1.484975e-01 +9.772348e-01 +1.484975e-01 +9.772348e-01 +1.484975e-01 +2.276516e-02 -1.484975e-01
1.083927e+05 +2.129071e-02 -1.436722e-01 +9.787093e-01 +1.436722e-01 +9.787093e-01 +1.436722e-01 +2.129071e-02 -1.436722e-01
1.122018e+05 +1.991066e-02 -1.389901e-01 +9.800893e-01 +1.389901e-01 +9.800893e-01 +1.389901e-01 +1.991066e-02 -1.389901e-01
1.161449e+05 +1.861920e-02 -1.344481e-01 +9.813808e-01 +1.344481e-01 +9.813808e-01 +1.344481e-01 +1.861920e-02 -1.344481e-01
1.202264e+05 +1.741087e-02 -1.300433e-01 +9.825891e-01 +1.300433e-01 +9.825891e-01 +1.300433e-01 +1.741087e-02 -1.300433e-01
1.244515e+05 +1.628050e-02 -1.257726e-01 +9.837195e-01 +1.257726e-01 +9.837195e-01 +1.257726e-01 +1.628050e-02 -1.257726e-01
1.288250e+05 +1.522323e-02 -1.216329e-01 +9.847768e-01 +1.216329e-01 +9.847768e-01 +1.216329e-01 +1.522323e-02 -1.216329e-01
1.333521e+05 +1.423448e-02 -1.176212e-01 +9.857655e-01 +1.176212e-01 +9.857655e-01 +1.176212e-01 +1.423448e-02 -1.176212e-01
1.380384e+05 +1.330993e-02 -1.137342e-01 +9.866901e-01 +1.137342e-01 +9.866901e-01 +1.137342e-01 +1.330993e-02 -1.137342e-01
1.428894e+05 +1.244552e-02 -1.099689e-01 +9.875545e-01 +1.099689e-01 +9.875545e-01 +1.099689e-01 +1.244552e-02 -1.099689e-01
1.479108e+05 +1.163744e-02 -1.063220e-01 +9.883626e-01 +1.063220e-01 +9.883626e-01 +1.063220e-01 +1.163744e-02 -1.063220e-01
1.531087e+05 +1.088210e-02 -1.027906e-01 +9.891179e-01 +1.027906e-01 +9.891179e-01 +1.027906e-01 +1.088210e-02 -1.027906e-01
1.584893e+05 +1.017614e-02 -9.937132e-02 +9.898239e-01 +9.937132e-02 +9.898239e-01 +9.937132e-02 +1.017614e-02 -9.937132e-02
1.640590e+05 +9.516384e-03 -9.606126e-02 +9.904836e-01 +9.606126e-02 +9.904836e-01 +9.606126e-02 +9.516384e-03 -9.606126e-02
1.698244e+05 +8.899872e-03 -9.285733e-02 +9.911001e-01 +9.285733e-02 +9.911001e-01 +9.285733e-02 +8.899872e-03 -9.285733e-02
1.757924e+05 +8.323817e-03 -8.975653e-02 +9.916762e-01 +8.975653e-02 +9.916762e-01 +8.975653e-02 +8.323817e-03 -8.975653e-02
1.819701e+05 +7.785606e-03 -8.675591e-02 +9.922144e-01 +8.675591e-02 +9.922144e-01 +8.675591e-02 +7.785606e-03 -8.675591e-02
1.883649e+05 +7.282792e-03 -8.385254e-02 +9.927172e-01 +8.385254e-02 +9.927172e-01 +8.385254e-02 +7.282792e-03 -8.385254e-02
1.949845e+05 +6.813078e-03 -8.104358e-02 +9.931869e-01 +8.104358e-02 +9.931869e-01 +8.104358e-02 +6.813078e-03 -8.104358e-02
2.018366e+05 +6.374315e-03 -7.832622e-02 +9.936257e-01 +7.832622e-02 +9.936257e-01 +7.832622e-02 +6.374315e-03 -7.832622e-02
2.089296e+05 +5.964487e-03 -7.569772e-02 +9.940355e-01 +7.569772e-02 +9.940355e-01 +7.569772e-02 +5.964487e-03 -7.569772e-02
2.162719e+05 +5.581708e-03 -7.315538e-02 +9.944183e-01 +7.315538e-02 +9.944183e-01 +7.315538e-02 +5.581708e-03 -7.315538e-02
2.238721e+05 +5.224213e-03 -7.069657e-02 +9.947758e-01 +7.069657e-02 +9.947758e-01 +7.069657e-02 +5.224213e-03 -7.069657e-02
2.317395e+05 +4.890346e-03 -6.831873e-02 +9.951097e-01 +6.831873e-02 +9.951097e-01 +6.831873e-02 +4.890346e-03 -6.831873e-02
2.398833e+05 +4.578561e-03 -6.601934e-02 +9.954214e-01 +6.601934e-02 +9.954214e-01 +6.601934e-02 +4.578561e-03 -6.601934e-02
2.483133e+05 +4.287411e-03 -6.379597e-02 +9.957126e-01 +6.379597e-02 +9.957126e-01 +6.379597e-02 +4.287411e-03 -6.379597e-02
2.570396e+05 +4.015540e-03 -6.164623e-02 +9.959845e-01 +6.164623e-02 +9.959845e-01 +6.164623e-02 +4.015540e-03 -6.164623e-02
2.660725e+05 +3.761681e-03 -5.956780e-02 +9.962383e-01 +5.956780e-02 +9.962383e-01 +5.956780e-02 +3.761681e-03 -5.956780e-02
2.754229e+05 +3.524649e-03 -5.755841e-02 +9.964754e-01 +5.755841e-02 +9.964754e-01 +5.755841e-02 +3.524649e-03 -5.755841e-02
2.851018e+05 +3.303336e-03 -5.561587e-02 +9.966967e-01 +5.561587e-02 +9.966967e-01 +5.561587e-02 +3.303336e-03 -5.561587e-02
2.951209e+05 +3.096707e-03 -5.373803e-02 +9.969033e-01 +5.373803e-02 +9.969033e-01 +5.373803e-02 +3.096707e-03 -5.373803e-02
3.054921e+05 +2.903791e-03 -5.192283e-02 +9.970962e-01 +5.192283e-02 +9.970962e-01 +5.192283e-02 +2.903791e-03 -5.192283e-02
3.162278e+05 +2.723685e-03 -5.016823e-02 +9.972763e-01 +5.016823e-02 +9.972763e-01 +5.016823e-02 +2.723685e-03 -5.016823e-02
3.273407e+05 +2.555541e-03 -4.847227e-02 +9.974445e-01 +4.847227e-02 +9.974445e-01 +4.847227e-02 +2.555541e-03 -4.847227e-02
3.388442e+05 +2.398569e-03 -4.683306e-02 +9.976014e-01 +4.683306e-02 +9.976014e-01 +4.683306e-02 +2.398569e-03 -4.683306e-02
3.507519e+05 +2.252029e-03 -4.524874e-02 +9.977480e-01 +4.524874e-02 +9.977480e-01 +4.524874e-02 +2.252029e-03 -4.524874e-02
3.630781e+05 +2.115232e-03 -4.371751e-02 +9.978848e-01 +4.371751e-02 +9.978848e-01 +4.371751e-02 +2.115232e-03 -4.371751e-02
3.758374e+05 +1.987531e-03 -4.223764e-02 +9.980125e-01 +4.223764e-02 +9.980125e-01 +4.223764e-02 +1.987531e-03 -4.223764e-02
3.890451e+05 +1.868325e-03 -4.080745e-02 +9.981317e-01 +4.080745e-02 +9.981317e-01 +4.080745e-02 +1.868325e-03 -4.080745e-02
4.027170e+05 +1.757049e-03 -3.942529e-02 +9.982430e-01 +3.942529e-02 +9.982430e-01 +3.942529e-02 +1.757049e-03 -3.942529e-02
4.168694e+05 +1.653178e-03 -3.808957e-02 +9.983468e-01 +3.808957e-02 +9.983468e-01 +3.808957e-02 +1.653178e-03 -3.808957e-02
4.315191e+05 +1.556220e-03 -3.679877e-02 +9.984438e-01 +3.679877e-02 +9.984438e-01 +3.679877e-02 +1.556220e-03 -3.679877e-02
4.466836e+05 +1.465717e-03 -3.555140e-02 +9.985343e-01 +3.555140e-02 +9.985343e-01 +3.555140e-02 +1.465717e-03 -3.555140e-02
4.623810e+05 +1.381240e-03 -3.434601e-02 +9.986188e-01 +3.434601e-02 +9.986188e-01 +3.434601e-02 +1.381240e-03 -3.434601e-02
4.786301e+05 +1.302389e-03 -3.318121e-02 +9.986976e-01 +3.318121e-02 +9.986976e-01 +3.318121e-02 +1.302389e-03 -3.318121e-02
4.954502e+05 +1.228789e-03 -3.205565e-02 +9.987712e-01 +3.205565e-02 +9.987712e-01 +3.205565e-02 +1.228789e-03 -3.205565e-02
5.128614e+05 +1.160092e-03 -3.096802e-02 +9.988399e-01 +3.096802e-02 +9.988399e-01 +3.096802e-02 +1.160092e-03 -3.096802e-02
5.308844e+05 +1.095971e-03 -2.991704e-02 +9.989040e-01 +2.991704e-02 +9.989040e-01 +2.991704e-02 +1.095971e-03 -2.991704e-02
5.495409e+05 +1.036123e-03 -2.890151e-02 +9.989639e-01 +2.890151e-02 +9.989639e-01 +2.890151e-02 +1.036123e-03 -2.890151e-02
5.688529e+05 +9.802635e-04 -2.792022e-02 +9.990197e-01 +2.792022e-02 +9.990197e-01 +2.792022e-02 +9.802635e-04 -2.792022e-02
5.888437e+05 +9.281264e-04 -2.697203e-02 +9.990719e-01 +2.697203e-02 +9.990719e-01 +2.697203e-02 +9.281264e-04 -2.697203e-02
6.095369e+05 +8.794643e-04 -2.605584e-02 +9.991205e-01 +2.605584e-02 +9.991205e-01 +2.605584e-02 +8.794643e-04 -2.605584e-02
6.309573e+05 +8.340459e-04 -2.517056e-02 +9.991660e-01 +2.517056e-02 +9.991660e-01 +2.517056e-02 +8.340459e-04 -2.517056e-02
6.531306e+05 +7.916552e-04 -2.431516e-02 +9.992083e-01 +2.431516e-02 +9.992083e-01 +2.431516e-02 +7.916552e-04 -2.431516e-02
6.760830e+05 +7.520908e-04 -2.348863e-02 +9.992479e-01 +2.348863e-02 +9.992479e-01 +2.348863e-02 +7.520908e-04 -2.348863e-02
6.998420e+05 +7.151642e-04 -2.268999e-02 +9.992848e-01 +2.268999e-02 +9.992848e-01 +2.268999e-02 +7.151642e-04 -2.268999e-02
7.244360e+05 +6.807000e-04 -2.191832e-02 +9.993193e-01 +2.191832e-02 +9.993193e-01 +2.191832e-02 +6.807000e-04 -2.191832e-02
7.498942e+05 +6.485339e-04 -2.117269e-02 +9.993515e-01 +2.117269e-02 +9.993515e-01 +2.117269e-02 +6.485339e-04 -2.117269e-02
7.762471e+05 +6.185129e-04 -2.045224e-02 +9.993815e-01 +2.045224e-02 +9.993815e-01 +2.045224e-02 +6.185129e-04 -2.045224e-02
8.035261e+05 +5.904940e-04 -1.975610e-02 +9.994095e-01 +1.975610e-02 +9.994095e-01 +1.975610e-02 +5.904940e-04 -1.975610e-02
8.317638e+05 +5.643439e-04 -1.908346e-02 +9.994357e-01 +1.908346e-02 +9.994357e-01 +1.908346e-02 +5.643439e-04 -1.908346e-02
8.609938e+05 +5.399380e-04 -1.843351e-02 +9.994601e-01 +1.843351e-02 +9.994601e-01 +1.843351e-02 +5.399380e-04 -1.843351e-02
8.912509e+05 +5.171600e-04 -1.780550e-02 +9.994828e-01 +1.780550e-02 +9.994828e-01 +1.780550e-02 +5.171600e-04 -1.780550e-02
9.225714e+05 +4.959014e-04 -1.719868e-02 +9.995041e-01 +1.719868e-02 +9.995041e-01 +1.719868e-02 +4.959014e-04 -1.719868e-02
9.549926e+05 +4.760609e-04 -1.661233e-02 +9.995239e-01 +1.661233e-02 +9.995239e-01 +1.661233e-02 +4.760609e-04 -1.661233e-02
9.885531e+05 +4.575440e-04 -1.604575e-02 +9.995425e-01 +1.604575e-02 +9.995425e-01 +1.604575e-02 +4.575440e-04 -1.604575e-02
1.023293e+06 +4.402625e-04 -1.549828e-02 +9.995597e-01 +1.549828e-02 +9.995597e-01 +1.549828e-02 +4.402625e-04 -1.549828e-02
1.059254e+06 +4.241338e-04 -1.496926e-02 +9.995759e-01 +1.496926e-02 +9.995759e-01 +1.496926e-02 +4.241338e-04 -1.496926e-02
1.096478e+06 +4.090813e-04 -1.445807e-02 +9.995909e-01 +1.445807e-02 +9.995909e-01 +1.445807e-02 +4.090813e-04 -1.445807e-02
1.135011e+06 +3.950330e-04 -1.396410e-02 +9.996050e-01 +1.396410e-02 +9.996050e-01 +1.396410e-02 +3.950330e-04 -1.396410e-02
1.174898e+06 +3.819221e-04 -1.348676e-02 +9.996181e-01 +1.348676e-02 +9.996181e-01 +1.348676e-02 +3.819221e-04 -1.348676e-02
1.216186e+06 +3.696860e-04 -1.302548e-02 +9.996303e-01 +1.302548e-02 +9.996303e-01 +1.302548e-02 +3.696860e-04 -1.302548e-02
1.258925e+06 +3.582663e-04 -1.257973e-02 +9.996417e-01 +1.257973e-02 +9.996417e-01 +1.257973e-02 +3.582663e-04 -1.257973e-02
1.303167e+06 +3.476087e-04 -1.214897e-02 +9.996524e-01 +1.214897e-02 +9.996524e-01 +1.214897e-02 +3.476087e-04 -1.214897e-02
1.348963e+06 +3.376622e-04 -1.173268e-02 +9.996623e-01 +1.173268e-02 +9.996623e-01 +1.173268e-02 +3.376622e-04 -1.173268e-02
1.396368e+06 +3.283795e-04 -1.133037e-02 +9.996716e-01 +1.133037e-02 +9.996716e-01 +1.133037e-02 +3.283795e-04 -1.133037e-02
1.445440e+06 +3.197162e-04 -1.094157e-02 +9.996803e-01 +1.094157e-02 +9.996803e-01 +1.094157e-02 +3.197162e-04 -1.094157e-02
1.496236e+06 +3.116311e-04 -1.056581e-02 +9.996884e-01 +1.056581e-02 +9.996884e-01 +1.056581e-02 +3.116311e-04 -1.056581e-02
1.548817e+06 +3.040856e-04 -1.020264e-02 +9.996959e-01 +1.020264e-02 +9.996959e-01 +1.020264e-02 +3.040856e-04 -1.020264e-02
1.603245e+06 +2.970436e-04 -9.851636e-03 +9.997030e-01 +9.851636e-03 +9.997030e-01 +9.851636e-03 +2.970436e-04 -9.851636e-03
1.659587e+06 +2.904716e-04 -9.512374e-03 +9.997095e-01 +9.512374e-03 +9.997095e-01 +9.512374e-03 +2.904716e-04 -9.512374e-03
1.717908e+06 +2.843382e-04 -9.184453e-03 +9.997157e-01 +9.184453e-03 +9.997157e-01 +9.184453e-03 +2.843382e-04 -9.184453e-03
1.778279e+06 +2.786142e-04 -8.867482e-03 +9.997214e-01 +8.867482e-03 +9.997214e-01 +8.867482e-03 +2.786142e-04 -8.867482e-03
1.840772e+06 +2.732722e-04 -8.561083e-03 +9.997267e-01 +8.561083e-03 +9.997267e-01 +8.561083e-03 +2.732722e-04 -8.561083e-03
1.902265e+06 +2.685212e-04 -8.279054e-03 +9.997315e-01 +8.279054e-03 +9.997315e-01 +8.279054e-03 +2.685212e-04 -8.279054e-03
1.905461e+06 +2.682868e-04 -8.264892e-03 +9.997317e-01 +8.264892e-03 +9.997317e-01 +8.264892e-03 +2.682868e-04 -8.264892e-03
1.972423e+06 +2.636341e-04 -7.978556e-03 +9.997364e-01 +7.978556e-03 +9.997364e-01 +7.978556e-03 +2.636341e-04 -7.978556e-03
1.977324e+06 +2.633120e-04 -7.958351e-03 +9.997367e-01 +7.958351e-03 +9.997367e-01 +7.958351e-03 +2.633120e-04 -7.958351e-03
2.041738e+06 +2.592921e-04 -7.701733e-03 +9.997407e-01 +7.701733e-03 +9.997407e-01 +7.701733e-03 +2.592921e-04 -7.701733e-03
2.055344e+06 +2.584909e-04 -7.649562e-03 +9.997415e-01 +7.649562e-03 +9.997415e-01 +7.649562e-03 +2.584909e-04 -7.649562e-03
2.113489e+06 +2.552399e-04 -7.434095e-03 +9.997448e-01 +7.434095e-03 +9.997448e-01 +7.434095e-03 +2.552399e-04 -7.434095e-03
2.136443e+06 +2.540290e-04 -7.352225e-03 +9.997460e-01 +7.352225e-03 +9.997460e-01 +7.352225e-03 +2.540290e-04 -7.352225e-03
2.187762e+06 +2.514582e-04 -7.175322e-03 +9.997485e-01 +7.175322e-03 +9.997485e-01 +7.175322e-03 +2.514582e-04 -7.175322e-03
2.220741e+06 +2.498994e-04 -7.065895e-03 +9.997501e-01 +7.065895e-03 +9.997501e-01 +7.065895e-03 +2.498994e-04 -7.065895e-03
2.264644e+06 +2.479290e-04 -6.925105e-03 +9.997521e-01 +6.925105e-03 +9.997521e-01 +6.925105e-03 +2.479290e-04 -6.925105e-03
2.308366e+06 +2.460774e-04 -6.790144e-03 +9.997539e-01 +6.790144e-03 +9.997539e-01 +6.790144e-03 +2.460774e-04 -6.790144e-03
2.344229e+06 +2.446354e-04 -6.683147e-03 +9.997554e-01 +6.683147e-03 +9.997554e-01 +6.683147e-03 +2.446354e-04 -6.683147e-03
2.399449e+06 +2.425402e-04 -6.524559e-03 +9.997575e-01 +6.524559e-03 +9.997575e-01 +6.524559e-03 +2.425402e-04 -6.524559e-03
2.426610e+06 +2.415617e-04 -6.449159e-03 +9.997584e-01 +6.449159e-03 +9.997584e-01 +6.449159e-03 +2.415617e-04 -6.449159e-03
2.494125e+06 +2.392665e-04 -6.268743e-03 +9.997607e-01 +6.268743e-03 +9.997607e-01 +6.268743e-03 +2.392665e-04 -6.268743e-03
2.511886e+06 +2.386933e-04 -6.222863e-03 +9.997613e-01 +6.222863e-03 +9.997613e-01 +6.222863e-03 +2.386933e-04 -6.222863e-03
2.592537e+06 +2.362368e-04 -6.022313e-03 +9.997638e-01 +6.022313e-03 +9.997638e-01 +6.022313e-03 +2.362368e-04 -6.022313e-03
2.600160e+06 +2.360164e-04 -6.003989e-03 +9.997640e-01 +6.003989e-03 +9.997640e-01 +6.003989e-03 +2.360164e-04 -6.003989e-03
2.691535e+06 +2.335183e-04 -5.792275e-03 +9.997665e-01 +5.792275e-03 +9.997665e-01 +5.792275e-03 +2.335183e-04 -5.792275e-03
2.694832e+06 +2.334329e-04 -5.784900e-03 +9.997666e-01 +5.784900e-03 +9.997666e-01 +5.784900e-03 +2.334329e-04 -5.784900e-03
2.786121e+06 +2.311871e-04 -5.587470e-03 +9.997688e-01 +5.587470e-03 +9.997688e-01 +5.587470e-03 +2.311871e-04 -5.587470e-03
2.801163e+06 +2.308379e-04 -5.556150e-03 +9.997692e-01 +5.556150e-03 +9.997692e-01 +5.556150e-03 +2.308379e-04 -5.556150e-03
2.884032e+06 +2.290115e-04 -5.389329e-03 +9.997710e-01 +5.389329e-03 +9.997710e-01 +5.389329e-03 +2.290115e-04 -5.389329e-03
2.911690e+06 +2.284364e-04 -5.335719e-03 +9.997716e-01 +5.335719e-03 +9.997716e-01 +5.335719e-03 +2.284364e-04 -5.335719e-03
2.985383e+06 +2.269814e-04 -5.197617e-03 +9.997730e-01 +5.197617e-03 +9.997730e-01 +5.197617e-03 +2.269814e-04 -5.197617e-03
3.026577e+06 +2.262139e-04 -5.123278e-03 +9.997738e-01 +5.123278e-03 +9.997738e-01 +5.123278e-03 +2.262139e-04 -5.123278e-03
3.090295e+06 +2.250868e-04 -5.012104e-03 +9.997749e-01 +5.012104e-03 +9.997749e-01 +5.012104e-03 +2.250868e-04 -5.012104e-03
3.145998e+06 +2.241572e-04 -4.918509e-03 +9.997758e-01 +4.918509e-03 +9.997758e-01 +4.918509e-03 +2.241572e-04 -4.918509e-03
3.198895e+06 +2.233189e-04 -4.832569e-03 +9.997767e-01 +4.832569e-03 +9.997767e-01 +4.832569e-03 +2.233189e-04 -4.832569e-03
3.270132e+06 +2.222538e-04 -4.721106e-03 +9.997777e-01 +4.721106e-03 +9.997777e-01 +4.721106e-03 +2.222538e-04 -4.721106e-03
3.311311e+06 +2.216692e-04 -4.658798e-03 +9.997783e-01 +4.658798e-03 +9.997783e-01 +4.658798e-03 +2.216692e-04 -4.658798e-03
3.399163e+06 +2.204924e-04 -4.530772e-03 +9.997795e-01 +4.530772e-03 +9.997795e-01 +4.530772e-03 +2.204924e-04 -4.530772e-03
3.427678e+06 +2.201298e-04 -4.490585e-03 +9.997799e-01 +4.490585e-03 +9.997799e-01 +4.490585e-03 +2.201298e-04 -4.490585e-03
3.533285e+06 +2.188625e-04 -4.347223e-03 +9.997811e-01 +4.347223e-03 +9.997811e-01 +4.347223e-03 +2.188625e-04 -4.347223e-03
3.548134e+06 +2.186933e-04 -4.327728e-03 +9.997813e-01 +4.327728e-03 +9.997813e-01 +4.327728e-03 +2.186933e-04 -4.327728e-03
3.672700e+06 +2.173542e-04 -4.170185e-03 +9.997826e-01 +4.170185e-03 +9.997826e-01 +4.170185e-03 +2.173542e-04 -4.170185e-03
3.672823e+06 +2.173530e-04 -4.170034e-03 +9.997826e-01 +4.170034e-03 +9.997826e-01 +4.170034e-03 +2.173530e-04 -4.170034e-03
3.801894e+06 +2.161023e-04 -4.017314e-03 +9.997839e-01 +4.017314e-03 +9.997839e-01 +4.017314e-03 +2.161023e-04 -4.017314e-03
3.817615e+06 +2.159586e-04 -3.999391e-03 +9.997840e-01 +3.999391e-03 +9.997840e-01 +3.999391e-03 +2.159586e-04 -3.999391e-03
3.935501e+06 +2.149354e-04 -3.869385e-03 +9.997851e-01 +3.869385e-03 +9.997851e-01 +3.869385e-03 +2.149354e-04 -3.869385e-03
3.968248e+06 +2.146672e-04 -3.834587e-03 +9.997853e-01 +3.834587e-03 +9.997853e-01 +3.834587e-03 +2.146672e-04 -3.834587e-03
4.073803e+06 +2.138466e-04 -3.726073e-03 +9.997862e-01 +3.726073e-03 +9.997862e-01 +3.726073e-03 +2.138466e-04 -3.726073e-03
4.124825e+06 +2.134724e-04 -3.675526e-03 +9.997865e-01 +3.675526e-03 +9.997865e-01 +3.675526e-03 +2.134724e-04 -3.675526e-03
4.216965e+06 +2.128308e-04 -3.587205e-03 +9.997872e-01 +3.587205e-03 +9.997872e-01 +3.587205e-03 +2.128308e-04 -3.587205e-03
4.287581e+06 +2.123669e-04 -3.521969e-03 +9.997876e-01 +3.521969e-03 +9.997876e-01 +3.521969e-03 +2.123669e-04 -3.521969e-03
4.365158e+06 +2.118831e-04 -3.452617e-03 +9.997881e-01 +3.452617e-03 +9.997881e-01 +3.452617e-03 +2.118831e-04 -3.452617e-03
4.456758e+06 +2.113442e-04 -3.373686e-03 +9.997887e-01 +3.373686e-03 +9.997887e-01 +3.373686e-03 +2.113442e-04 -3.373686e-03
4.518559e+06 +2.109990e-04 -3.322147e-03 +9.997890e-01 +3.322147e-03 +9.997890e-01 +3.322147e-03 +2.109990e-04 -3.322147e-03
4.632610e+06 +2.103981e-04 -3.230456e-03 +9.997896e-01 +3.230456e-03 +9.997896e-01 +3.230456e-03 +2.103981e-04 -3.230456e-03
4.677351e+06 +2.101743e-04 -3.195641e-03 +9.997898e-01 +3.195641e-03 +9.997898e-01 +3.195641e-03 +2.101743e-04 -3.195641e-03
4.815401e+06 +2.095229e-04 -3.092064e-03 +9.997905e-01 +3.092064e-03 +9.997905e-01 +3.092064e-03 +2.095229e-04 -3.092064e-03
4.841724e+06 +2.094050e-04 -3.072946e-03 +9.997906e-01 +3.072946e-03 +9.997906e-01 +3.072946e-03 +2.094050e-04 -3.072946e-03
5.005404e+06 +2.087134e-04 -2.958303e-03 +9.997913e-01 +2.958303e-03 +9.997913e-01 +2.958303e-03 +2.087134e-04 -2.958303e-03
5.011872e+06 +2.086875e-04 -2.953917e-03 +9.997913e-01 +2.953917e-03 +9.997913e-01 +2.953917e-03 +2.086875e-04 -2.953917e-03
5.188000e+06 +2.080183e-04 -2.838413e-03 +9.997920e-01 +2.838413e-03 +9.997920e-01 +2.838413e-03 +2.080183e-04 -2.838413e-03
5.202905e+06 +2.079648e-04 -2.828973e-03 +9.997920e-01 +2.828973e-03 +9.997920e-01 +2.828973e-03 +2.079648e-04 -2.828973e-03
5.370318e+06 +2.073942e-04 -2.726294e-03 +9.997926e-01 +2.726294e-03 +9.997926e-01 +2.726294e-03 +2.073942e-04 -2.726294e-03
5.408199e+06 +2.072725e-04 -2.703879e-03 +9.997927e-01 +2.703879e-03 +9.997927e-01 +2.703879e-03 +2.072725e-04 -2.703879e-03
5.559043e+06 +2.068124e-04 -2.617427e-03 +9.997932e-01 +2.617427e-03 +9.997932e-01 +2.617427e-03 +2.068124e-04 -2.617427e-03
5.621592e+06 +2.066324e-04 -2.582835e-03 +9.997934e-01 +2.582835e-03 +9.997934e-01 +2.582835e-03 +2.066324e-04 -2.582835e-03
5.754399e+06 +2.062699e-04 -2.511684e-03 +9.997937e-01 +2.511684e-03 +9.997937e-01 +2.511684e-03 +2.062699e-04 -2.511684e-03
5.843406e+06 +2.060407e-04 -2.465660e-03 +9.997940e-01 +2.465660e-03 +9.997940e-01 +2.465660e-03 +2.060407e-04 -2.465660e-03
5.956621e+06 +2.057642e-04 -2.408936e-03 +9.997942e-01 +2.408936e-03 +9.997942e-01 +2.408936e-03 +2.057642e-04 -2.408936e-03
6.073972e+06 +2.054939e-04 -2.352177e-03 +9.997945e-01 +2.352177e-03 +9.997945e-01 +2.352177e-03 +2.054939e-04 -2.352177e-03
6.165950e+06 +2.052929e-04 -2.309062e-03 +9.997947e-01 +2.309062e-03 +9.997947e-01 +2.309062e-03 +2.052929e-04 -2.309062e-03
6.313636e+06 +2.049886e-04 -2.242216e-03 +9.997950e-01 +2.242216e-03 +9.997950e-01 +2.242216e-03 +2.049886e-04 -2.242216e-03
6.382635e+06 +2.048537e-04 -2.211943e-03 +9.997951e-01 +2.211943e-03 +9.997951e-01 +2.211943e-03 +2.048537e-04 -2.211943e-03
6.562756e+06 +2.045218e-04 -2.135615e-03 +9.997955e-01 +2.135615e-03 +9.997955e-01 +2.135615e-03 +2.045218e-04 -2.135615e-03
6.606934e+06 +2.044446e-04 -2.117463e-03 +9.997956e-01 +2.117463e-03 +9.997956e-01 +2.117463e-03 +2.044446e-04 -2.117463e-03
6.821705e+06 +2.040907e-04 -2.032211e-03 +9.997959e-01 +2.032211e-03 +9.997959e-01 +2.032211e-03 +2.040907e-04 -2.032211e-03
6.839116e+06 +2.040635e-04 -2.025509e-03 +9.997959e-01 +2.025509e-03 +9.997959e-01 +2.025509e-03 +2.040635e-04 -2.025509e-03
7.079458e+06 +2.037088e-04 -1.935971e-03 +9.997963e-01 +1.935971e-03 +9.997963e-01 +1.935971e-03 +2.037088e-04 -1.935971e-03
7.090873e+06 +2.036928e-04 -1.931851e-03 +9.997963e-01 +1.931851e-03 +9.997963e-01 +1.931851e-03 +2.036928e-04 -1.931851e-03
7.328245e+06 +2.033786e-04 -1.848743e-03 +9.997966e-01 +1.848743e-03 +9.997966e-01 +1.848743e-03 +2.033786e-04 -1.848743e-03
7.370660e+06 +2.033257e-04 -1.834385e-03 +9.997967e-01 +1.834385e-03 +9.997967e-01 +1.834385e-03 +2.033257e-04 -1.834385e-03
7.585776e+06 +2.030713e-04 -1.763720e-03 +9.997969e-01 +1.763720e-03 +9.997969e-01 +1.763720e-03 +2.030713e-04 -1.763720e-03
7.661488e+06 +2.029871e-04 -1.739666e-03 +9.997970e-01 +1.739666e-03 +9.997970e-01 +1.739666e-03 +2.029871e-04 -1.739666e-03
7.852356e+06 +2.027857e-04 -1.680801e-03 +9.997972e-01 +1.680801e-03 +9.997972e-01 +1.680801e-03 +2.027857e-04 -1.680801e-03
7.963791e+06 +2.026750e-04 -1.647553e-03 +9.997973e-01 +1.647553e-03 +9.997973e-01 +1.647553e-03 +2.026750e-04 -1.647553e-03
8.128305e+06 +2.025202e-04 -1.599888e-03 +9.997975e-01 +1.599888e-03 +9.997975e-01 +1.599888e-03 +2.025202e-04 -1.599888e-03
8.278022e+06 +2.023876e-04 -1.557907e-03 +9.997976e-01 +1.557907e-03 +9.997976e-01 +1.557907e-03 +2.023876e-04 -1.557907e-03
8.413951e+06 +2.022736e-04 -1.520883e-03 +9.997977e-01 +1.520883e-03 +9.997977e-01 +1.520883e-03 +2.022736e-04 -1.520883e-03
8.604652e+06 +2.021231e-04 -1.470595e-03 +9.997979e-01 +1.470595e-03 +9.997979e-01 +1.470595e-03 +2.021231e-04 -1.470595e-03
8.709636e+06 +2.020447e-04 -1.443693e-03 +9.997980e-01 +1.443693e-03 +9.997980e-01 +1.443693e-03 +2.020447e-04 -1.443693e-03
8.944169e+06 +2.018800e-04 -1.385485e-03 +9.997981e-01 +1.385485e-03 +9.997981e-01 +1.385485e-03 +2.018800e-04 -1.385485e-03
9.015711e+06 +2.018324e-04 -1.368225e-03 +9.997982e-01 +1.368225e-03 +9.997982e-01 +1.368225e-03 +2.018324e-04 -1.368225e-03
9.297084e+06 +2.016567e-04 -1.302450e-03 +9.997983e-01 +1.302450e-03 +9.997983e-01 +1.302450e-03 +2.016567e-04 -1.302450e-03
9.332543e+06 +2.016358e-04 -1.294389e-03 +9.997984e-01 +1.294389e-03 +9.997984e-01 +1.294389e-03 +2.016358e-04 -1.294389e-03
9.660509e+06 +2.014538e-04 -1.222098e-03 +9.997985e-01 +1.222098e-03 +9.997985e-01 +1.222098e-03 +2.014538e-04 -1.222098e-03
9.663923e+06 +2.014520e-04 -1.221366e-03 +9.997985e-01 +1.221366e-03 +9.997985e-01 +1.221366e-03 +2.014520e-04 -1.221366e-03
1.000000e+07 +2.012857e-04 -1.151264e-03 +9.997987e-01 +1.151264e-03 +9.997987e-01 +1.151264e-03 +2.012857e-04 -1.151264e-03
1.004524e+07 +2.012647e-04 -1.142111e-03 +9.997987e-01 +1.142111e-03 +9.997987e-01 +1.142111e-03 +2.012647e-04 -1.142111e-03
1.035142e+07 +2.011305e-04 -1.081804e-03 +9.997989e-01 +1.081804e-03 +9.997989e-01 +1.081804e-03 +2.011305e-04 -1.081804e-03
1.044160e+07 +2.010935e-04 -1.064567e-03 +9.997989e-01 +1.064567e-03 +9.997989e-01 +1.064567e-03 +2.010935e-04 -1.064567e-03
1.071519e+07 +2.009877e-04 -1.013635e-03 +9.997990e-01 +1.013635e-03 +9.997990e-01 +1.013635e-03 +2.009877e-04 -1.013635e-03
1.085360e+07 +2.009376e-04 -9.886174e-04 +9.997991e-01 +9.886174e-04 +9.997991e-01 +9.886174e-04 +2.009376e-04 -9.886174e-04
1.109175e+07 +2.008564e-04 -9.466749e-04 +9.997991e-01 +9.466749e-04 +9.997991e-01 +9.466749e-04 +2.008564e-04 -9.466749e-04
1.128185e+07 +2.007958e-04 -9.141484e-04 +9.997992e-01 +9.141484e-04 +9.997992e-01 +9.141484e-04 +2.007958e-04 -9.141484e-04
1.148154e+07 +2.007361e-04 -8.808442e-04 +9.997993e-01 +8.808442e-04 +9.997993e-01 +8.808442e-04 +2.007361e-04 -8.808442e-04
1.172700e+07 +2.006675e-04 -8.410486e-04 +9.997993e-01 +8.410486e-04 +9.997993e-01 +8.410486e-04 +2.006675e-04 -8.410486e-04
1.188502e+07 +2.006261e-04 -8.160644e-04 +9.997994e-01 +8.160644e-04 +9.997994e-01 +8.160644e-04 +2.006261e-04 -8.160644e-04
1.218972e+07 +2.005518e-04 -7.692085e-04 +9.997994e-01 +7.692085e-04 +9.997994e-01 +7.692085e-04 +2.005518e-04 -7.692085e-04
1.230269e+07 +2.005260e-04 -7.522581e-04 +9.997995e-01 +7.522581e-04 +9.997995e-01 +7.522581e-04 +2.005260e-04 -7.522581e-04
1.267070e+07 +2.004480e-04 -6.985205e-04 +9.997996e-01 +6.985205e-04 +9.997996e-01 +6.985205e-04 +2.004480e-04 -6.985205e-04
1.273503e+07 +2.004353e-04 -6.893493e-04 +9.997996e-01 +6.893493e-04 +9.997996e-01 +6.893493e-04 +2.004353e-04 -6.893493e-04
1.317065e+07 +2.003556e-04 -6.288787e-04 +9.997996e-01 +6.288787e-04 +9.997996e-01 +6.288787e-04 +2.003556e-04 -6.288787e-04
1.318257e+07 +2.003535e-04 -6.272629e-04 +9.997996e-01 +6.272629e-04 +9.997996e-01 +6.272629e-04 +2.003535e-04 -6.272629e-04
1.364583e+07 +2.002803e-04 -5.659249e-04 +9.997997e-01 +5.659249e-04 +9.997997e-01 +5.659249e-04 +2.002803e-04 -5.659249e-04
1.369033e+07 +2.002739e-04 -5.601788e-04 +9.997997e-01 +5.601788e-04 +9.997997e-01 +5.601788e-04 +2.002739e-04 -5.601788e-04
1.412538e+07 +2.002153e-04 -5.052620e-04 +9.997998e-01 +5.052620e-04 +9.997998e-01 +5.052620e-04 +2.002153e-04 -5.052620e-04
1.423052e+07 +2.002024e-04 -4.923180e-04 +9.997998e-01 +4.923180e-04 +9.997998e-01 +4.923180e-04 +2.002024e-04 -4.923180e-04
1.462177e+07 +2.001583e-04 -4.452019e-04 +9.997998e-01 +4.452019e-04 +9.997998e-01 +4.452019e-04 +2.001583e-04 -4.452019e-04
1.479202e+07 +2.001408e-04 -4.251945e-04 +9.997999e-01 +4.251945e-04 +9.997999e-01 +4.251945e-04 +2.001408e-04 -4.251945e-04
1.513561e+07 +2.001088e-04 -3.856729e-04 +9.997999e-01 +3.856729e-04 +9.997999e-01 +3.856729e-04 +2.001088e-04 -3.856729e-04
1.537567e+07 +2.000887e-04 -3.587078e-04 +9.997999e-01 +3.587078e-04 +9.997999e-01 +3.587078e-04 +2.000887e-04 -3.587078e-04
1.566751e+07 +2.000667e-04 -3.266041e-04 +9.997999e-01 +3.266041e-04 +9.997999e-01 +3.266041e-04 +2.000667e-04 -3.266041e-04
1.598236e+07 +2.000457e-04 -2.927584e-04 +9.998000e-01 +2.927584e-04 +9.998000e-01 +2.927584e-04 +2.000457e-04 -2.927584e-04
1.621810e+07 +2.000318e-04 -2.679249e-04 +9.998000e-01 +2.679249e-04 +9.998000e-01 +2.679249e-04 +2.000318e-04 -2.679249e-04
1.661298e+07 +2.000117e-04 -2.272475e-04 +9.998000e-01 +2.272475e-04 +9.998000e-01 +2.272475e-04 +2.000117e-04 -2.272475e-04
1.678804e+07 +2.000039e-04 -2.095653e-04 +9.998000e-01 +2.095653e-04 +9.998000e-01 +2.095653e-04 +2.000039e-04 -2.095653e-04
1.726849e+07 +1.999863e-04 -1.620770e-04 +9.998000e-01 +1.620770e-04 +9.998000e-01 +1.620770e-04 +1.999863e-04 -1.620770e-04
1.737801e+07 +1.999830e-04 -1.514558e-04 +9.998000e-01 +1.514558e-04 +9.998000e-01 +1.514558e-04 +1.999830e-04 -1.514558e-04
1.794986e+07 +1.999694e-04 -9.714919e-05 +9.998000e-01 +9.714919e-05 +9.998000e-01 +9.714919e-05 +1.999694e-04 -9.714919e-05
1.798871e+07 +1.999688e-04 -9.352694e-05 +9.998000e-01 +9.352694e-05 +9.998000e-01 +9.352694e-05 +1.999688e-04 -9.352694e-05
1.862087e+07 +1.999613e-04 -3.570967e-05 +9.998000e-01 +3.570967e-05 +9.998000e-01 +3.570967e-05 +1.999613e-04 -3.570967e-05
1.865811e+07 +1.999611e-04 -3.236690e-05 +9.998000e-01 +3.236690e-05 +9.998000e-01 +3.236690e-05 +1.999611e-04 -3.236690e-05
1.927525e+07 +1.999605e-04 +2.206500e-05 +9.998000e-01 -2.206500e-05 +9.998000e-01 -2.206500e-05 +1.999605e-04 +2.206500e-05
1.939432e+07 +1.999611e-04 +3.236690e-05 +9.998000e-01 -3.236690e-05 +9.998000e-01 -3.236690e-05 +1.999611e-04 +3.236690e-05
1.995262e+07 +1.999664e-04 +7.986599e-05 +9.998000e-01 -7.986599e-05 +9.998000e-01 -7.986599e-05 +1.999664e-04 +7.986599e-05
2.015957e+07 +1.999694e-04 +9.714919e-05 +9.998000e-01 -9.714919e-05 +9.998000e-01 -9.714919e-05 +1.999694e-04 +9.714919e-05
2.065380e+07 +1.999790e-04 +1.377623e-04 +9.998000e-01 -1.377623e-04 +9.998000e-01 -1.377623e-04 +1.999790e-04 +1.377623e-04
2.095501e+07 +1.999863e-04 +1.620770e-04 +9.998000e-01 -1.620770e-04 +9.998000e-01 -1.620770e-04 +1.999863e-04 +1.620770e-04
2.137962e+07 +1.999984e-04 +1.958229e-04 +9.998000e-01 -1.958229e-04 +9.998000e-01 -1.958229e-04 +1.999984e-04 +1.958229e-04
2.178184e+07 +2.000117e-04 +2.272475e-04 +9.998000e-01 -2.272475e-04 +9.998000e-01 -2.272475e-04 +2.000117e-04 +2.272475e-04
2.213095e+07 +2.000246e-04 +2.541171e-04 +9.998000e-01 -2.541171e-04 +9.998000e-01 -2.541171e-04 +2.000246e-04 +2.541171e-04
2.264130e+07 +2.000457e-04 +2.927584e-04 +9.998000e-01 -2.927584e-04 +9.998000e-01 -2.927584e-04 +2.000457e-04 +2.927584e-04
2.290868e+07 +2.000578e-04 +3.127146e-04 +9.997999e-01 -3.127146e-04 +9.997999e-01 -3.127146e-04 +2.000578e-04 +3.127146e-04
2.353467e+07 +2.000887e-04 +3.587078e-04 +9.997999e-01 -3.587078e-04 +9.997999e-01 -3.587078e-04 +2.000887e-04 +3.587078e-04
2.371374e+07 +2.000982e-04 +3.716851e-04 +9.997999e-01 -3.716851e-04 +9.997999e-01 -3.716851e-04 +2.000982e-04 +3.716851e-04
2.446329e+07 +2.001408e-04 +4.251945e-04 +9.997999e-01 -4.251945e-04 +9.997999e-01 -4.251945e-04 +2.001408e-04 +4.251945e-04
2.454709e+07 +2.001459e-04 +4.310990e-04 +9.997999e-01 -4.310990e-04 +9.997999e-01 -4.310990e-04 +2.001459e-04 +4.310990e-04
2.540973e+07 +2.002012e-04 +4.910272e-04 +9.997998e-01 -4.910272e-04 +9.997998e-01 -4.910272e-04 +2.002012e-04 +4.910272e-04
2.542855e+07 +2.002024e-04 +4.923180e-04 +9.997998e-01 -4.923180e-04 +9.997998e-01 -4.923180e-04 +2.002024e-04 +4.923180e-04
2.630268e+07 +2.002643e-04 +5.515413e-04 +9.997997e-01 -5.515413e-04 +9.997997e-01 -5.515413e-04 +2.002643e-04 +5.515413e-04
2.643189e+07 +2.002739e-04 +5.601788e-04 +9.997997e-01 -5.601788e-04 +9.997997e-01 -5.601788e-04 +2.002739e-04 +5.601788e-04
2.722701e+07 +2.003355e-04 +6.127133e-04 +9.997997e-01 -6.127133e-04 +9.997997e-01 -6.127133e-04 +2.003355e-04 +6.127133e-04
2.747483e+07 +2.003556e-04 +6.288787e-04 +9.997996e-01 -6.288787e-04 +9.997996e-01 -6.288787e-04 +2.003556e-04 +6.288787e-04
2.818383e+07 +2.004152e-04 +6.746163e-04 +9.997996e-01 -6.746163e-04 +9.997996e-01 -6.746163e-04 +2.004152e-04 +6.746163e-04
2.855891e+07 +2.004480e-04 +6.985205e-04 +9.997996e-01 -6.985205e-04 +9.997996e-01 -6.985205e-04 +2.004480e-04 +6.985205e-04
2.917427e+07 +2.005038e-04 +7.373242e-04 +9.997995e-01 -7.373242e-04 +9.997995e-01 -7.373242e-04 +2.005038e-04 +7.373242e-04
2.968578e+07 +2.005518e-04 +7.692085e-04 +9.997994e-01 -7.692085e-04 +9.997994e-01 -7.692085e-04 +2.005518e-04 +7.692085e-04
3.019952e+07 +2.006016e-04 +8.009117e-04 +9.997994e-01 -8.009117e-04 +9.997994e-01 -8.009117e-04 +2.006016e-04 +8.009117e-04
3.085710e+07 +2.006675e-04 +8.410486e-04 +9.997993e-01 -8.410486e-04 +9.997993e-01 -8.410486e-04 +2.006675e-04 +8.410486e-04
3.126079e+07 +2.007092e-04 +8.654547e-04 +9.997993e-01 -8.654547e-04 +9.997993e-01 -8.654547e-04 +2.007092e-04 +8.654547e-04
3.207465e+07 +2.007958e-04 +9.141484e-04 +9.997992e-01 -9.141484e-04 +9.997992e-01 -9.141484e-04 +2.007958e-04 +9.141484e-04
3.235937e+07 +2.008270e-04 +9.310302e-04 +9.997992e-01 -9.310302e-04 +9.997992e-01 -9.310302e-04 +2.008270e-04 +9.310302e-04
3.334023e+07 +2.009376e-04 +9.886174e-04 +9.997991e-01 -9.886174e-04 +9.997991e-01 -9.886174e-04 +2.009376e-04 +9.886174e-04
3.349654e+07 +2.009556e-04 +9.977164e-04 +9.997990e-01 -9.977164e-04 +9.997990e-01 -9.977164e-04 +2.009556e-04 +9.977164e-04
3.465575e+07 +2.010935e-04 +1.064567e-03 +9.997989e-01 -1.064567e-03 +9.997989e-01 -1.064567e-03 +2.010935e-04 +1.064567e-03
3.467369e+07 +2.010957e-04 +1.065593e-03 +9.997989e-01 -1.065593e-03 +9.997989e-01 -1.065593e-03 +2.010957e-04 +1.065593e-03
3.589219e+07 +2.012479e-04 +1.134741e-03 +9.997988e-01 -1.134741e-03 +9.997988e-01 -1.134741e-03 +2.012479e-04 +1.134741e-03
3.602318e+07 +2.012647e-04 +1.142111e-03 +9.997987e-01 -1.142111e-03 +9.997987e-01 -1.142111e-03 +2.012647e-04 +1.142111e-03
3.715352e+07 +2.014129e-04 +1.205242e-03 +9.997986e-01 -1.205242e-03 +9.997986e-01 -1.205242e-03 +2.014129e-04 +1.205242e-03
3.744456e+07 +2.014520e-04 +1.221366e-03 +9.997985e-01 -1.221366e-03 +9.997985e-01 -1.221366e-03 +2.014520e-04 +1.221366e-03
3.845918e+07 +2.015915e-04 +1.277182e-03 +9.997984e-01 -1.277182e-03 +9.997984e-01 -1.277182e-03 +2.015915e-04 +1.277182e-03
3.892203e+07 +2.016567e-04 +1.302450e-03 +9.997983e-01 -1.302450e-03 +9.997983e-01 -1.302450e-03 +2.016567e-04 +1.302450e-03
3.981072e+07 +2.017846e-04 +1.350645e-03 +9.997982e-01 -1.350645e-03 +9.997982e-01 -1.350645e-03 +2.017846e-04 +1.350645e-03
4.045779e+07 +2.018800e-04 +1.385485e-03 +9.997981e-01 -1.385485e-03 +9.997981e-01 -1.385485e-03 +2.018800e-04 +1.385485e-03
4.120975e+07 +2.019931e-04 +1.425719e-03 +9.997980e-01 -1.425719e-03 +9.997980e-01 -1.425719e-03 +2.019931e-04 +1.425719e-03
4.205416e+07 +2.021231e-04 +1.470595e-03 +9.997979e-01 -1.470595e-03 +9.997979e-01 -1.470595e-03 +2.021231e-04 +1.470595e-03
4.265795e+07 +2.022180e-04 +1.502495e-03 +9.997978e-01 -1.502495e-03 +9.997978e-01 -1.502495e-03 +2.022180e-04 +1.502495e-03
4.371351e+07 +2.023876e-04 +1.557907e-03 +9.997976e-01 -1.557907e-03 +9.997976e-01 -1.557907e-03 +2.023876e-04 +1.557907e-03
4.415704e+07 +2.024603e-04 +1.581062e-03 +9.997975e-01 -1.581062e-03 +9.997975e-01 -1.581062e-03 +2.024603e-04 +1.581062e-03
4.543833e+07 +2.026750e-04 +1.647553e-03 +9.997973e-01 -1.647553e-03 +9.997973e-01 -1.647553e-03 +2.026750e-04 +1.647553e-03
4.570882e+07 +2.027212e-04 +1.661517e-03 +9.997973e-01 -1.661517e-03 +9.997973e-01 -1.661517e-03 +2.027212e-04 +1.661517e-03
4.723121e+07 +2.029871e-04 +1.739666e-03 +9.997970e-01 -1.739666e-03 +9.997970e-01 -1.739666e-03 +2.029871e-04 +1.739666e-03
4.731513e+07 +2.030020e-04 +1.743953e-03 +9.997970e-01 -1.743953e-03 +9.997970e-01 -1.743953e-03 +2.030020e-04 +1.743953e-03
4.897788e+07 +2.033040e-04 +1.828469e-03 +9.997967e-01 -1.828469e-03 +9.997967e-01 -1.828469e-03 +2.033040e-04 +1.828469e-03
4.909484e+07 +2.033257e-04 +1.834385e-03 +9.997967e-01 -1.834385e-03 +9.997967e-01 -1.834385e-03 +2.033257e-04 +1.834385e-03
5.069907e+07 +2.036286e-04 +1.915168e-03 +9.997964e-01 -1.915168e-03 +9.997964e-01 -1.915168e-03 +2.036286e-04 +1.915168e-03
5.103199e+07 +2.036928e-04 +1.931851e-03 +9.997963e-01 -1.931851e-03 +9.997963e-01 -1.931851e-03 +2.036928e-04 +1.931851e-03
5.248075e+07 +2.039774e-04 +2.004150e-03 +9.997960e-01 -2.004150e-03 +9.997960e-01 -2.004150e-03 +2.039774e-04 +2.004150e-03
5.304559e+07 +2.040907e-04 +2.032211e-03 +9.997959e-01 -2.032211e-03 +9.997959e-01 -2.032211e-03 +2.040907e-04 +2.032211e-03
5.432503e+07 +2.043521e-04 +2.095524e-03 +9.997956e-01 -2.095524e-03 +9.997956e-01 -2.095524e-03 +2.043521e-04 +2.095524e-03
5.513863e+07 +2.045218e-04 +2.135615e-03 +9.997955e-01 -2.135615e-03 +9.997955e-01 -2.135615e-03 +2.045218e-04 +2.135615e-03
5.623413e+07 +2.047545e-04 +2.189398e-03 +9.997952e-01 -2.189398e-03 +9.997952e-01 -2.189398e-03 +2.047545e-04 +2.189398e-03
5.731426e+07 +2.049886e-04 +2.242216e-03 +9.997950e-01 -2.242216e-03 +9.997950e-01 -2.242216e-03 +2.049886e-04 +2.242216e-03
5.821032e+07 +2.051863e-04 +2.285884e-03 +9.997948e-01 -2.285884e-03 +9.997948e-01 -2.285884e-03 +2.051863e-04 +2.285884e-03
5.957574e+07 +2.054939e-04 +2.352177e-03 +9.997945e-01 -2.352177e-03 +9.997945e-01 -2.352177e-03 +2.054939e-04 +2.352177e-03
6.025596e+07 +2.056499e-04 +2.385096e-03 +9.997944e-01 -2.385096e-03 +9.997944e-01 -2.385096e-03 +2.056499e-04 +2.385096e-03
6.192645e+07 +2.060407e-04 +2.465660e-03 +9.997940e-01 -2.465660e-03 +9.997940e-01 -2.465660e-03 +2.060407e-04 +2.465660e-03
6.237348e+07 +2.061472e-04 +2.487154e-03 +9.997939e-01 -2.487154e-03 +9.997939e-01 -2.487154e-03 +2.061472e-04 +2.487154e-03
6.436991e+07 +2.066324e-04 +2.582835e-03 +9.997934e-01 -2.582835e-03 +9.997934e-01 -2.582835e-03 +2.066324e-04 +2.582835e-03
6.456542e+07 +2.066808e-04 +2.592179e-03 +9.997933e-01 -2.592179e-03 +9.997933e-01 -2.592179e-03 +2.066808e-04 +2.592179e-03
6.683439e+07 +2.072531e-04 +2.700297e-03 +9.997927e-01 -2.700297e-03 +9.997927e-01 -2.700297e-03 +2.072531e-04 +2.700297e-03
6.690978e+07 +2.072725e-04 +2.703879e-03 +9.997927e-01 -2.703879e-03 +9.997927e-01 -2.703879e-03 +2.072725e-04 +2.703879e-03
6.918310e+07 +2.078669e-04 +2.811636e-03 +9.997921e-01 -2.811636e-03 +9.997921e-01 -2.811636e-03 +2.078669e-04 +2.811636e-03
6.954987e+07 +2.079648e-04 +2.828973e-03 +9.997920e-01 -2.828973e-03 +9.997920e-01 -2.828973e-03 +2.079648e-04 +2.828973e-03
7.161434e+07 +2.085252e-04 +2.926329e-03 +9.997915e-01 -2.926329e-03 +9.997915e-01 -2.926329e-03 +2.085252e-04 +2.926329e-03
7.229413e+07 +2.087134e-04 +2.958303e-03 +9.997913e-01 -2.958303e-03 +9.997913e-01 -2.958303e-03 +2.087134e-04 +2.958303e-03
7.413102e+07 +2.092310e-04 +3.044512e-03 +9.997908e-01 -3.044512e-03 +9.997908e-01 -3.044512e-03 +2.092310e-04 +3.044512e-03
7.514667e+07 +2.095229e-04 +3.092064e-03 +9.997905e-01 -3.092064e-03 +9.997905e-01 -3.092064e-03 +2.095229e-04 +3.092064e-03
7.673615e+07 +2.099877e-04 +3.166328e-03 +9.997900e-01 -3.166328e-03 +9.997900e-01 -3.166328e-03 +2.099877e-04 +3.166328e-03
7.811177e+07 +2.103981e-04 +3.230456e-03 +9.997896e-01 -3.230456e-03 +9.997896e-01 -3.230456e-03 +2.103981e-04 +3.230456e-03
7.943282e+07 +2.107990e-04 +3.291921e-03 +9.997892e-01 -3.291921e-03 +9.997892e-01 -3.291921e-03 +2.107990e-04 +3.291921e-03
8.119386e+07 +2.113442e-04 +3.373686e-03 +9.997887e-01 -3.373686e-03 +9.997887e-01 -3.373686e-03 +2.113442e-04 +3.373686e-03
8.222426e+07 +2.116687e-04 +3.421441e-03 +9.997883e-01 -3.421441e-03 +9.997883e-01 -3.421441e-03 +2.116687e-04 +3.421441e-03
8.439757e+07 +2.123669e-04 +3.521969e-03 +9.997876e-01 -3.521969e-03 +9.997876e-01 -3.521969e-03 +2.123669e-04 +3.521969e-03
8.511380e+07 +2.126010e-04 +3.555043e-03 +9.997874e-01 -3.555043e-03 +9.997874e-01 -3.555043e-03 +2.126010e-04 +3.555043e-03
8.772768e+07 +2.134724e-04 +3.675526e-03 +9.997865e-01 -3.675526e-03 +9.997865e-01 -3.675526e-03 +2.134724e-04 +3.675526e-03
8.810489e+07 +2.136003e-04 +3.692885e-03 +9.997864e-01 -3.692885e-03 +9.997864e-01 -3.692885e-03 +2.136003e-04 +3.692885e-03
9.118919e+07 +2.146672e-04 +3.834587e-03 +9.997853e-01 -3.834587e-03 +9.997853e-01 -3.834587e-03 +2.146672e-04 +3.834587e-03
9.120108e+07 +2.146714e-04 +3.835133e-03 +9.997853e-01 -3.835133e-03 +9.997853e-01 -3.835133e-03 +2.146714e-04 +3.835133e-03
9.440609e+07 +2.158194e-04 +3.981955e-03 +9.997842e-01 -3.981955e-03 +9.997842e-01 -3.981955e-03 +2.158194e-04 +3.981955e-03
9.478729e+07 +2.159586e-04 +3.999391e-03 +9.997840e-01 -3.999391e-03 +9.997840e-01 -3.999391e-03 +2.159586e-04 +3.999391e-03
9.772372e+07 +2.170498e-04 +4.133527e-03 +9.997830e-01 -4.133527e-03 +9.997830e-01 -4.133527e-03 +2.170498e-04 +4.133527e-03
9.852736e+07 +2.173542e-04 +4.170185e-03 +9.997826e-01 -4.170185e-03 +9.997826e-01 -4.170185e-03 +2.173542e-04 +4.170185e-03
1.011579e+08 +2.183684e-04 +4.290030e-03 +9.997816e-01 -4.290030e-03 +9.997816e-01 -4.290030e-03 +2.183684e-04 +4.290030e-03
1.024150e+08 +2.188625e-04 +4.347223e-03 +9.997811e-01 -4.347223e-03 +9.997811e-01 -4.347223e-03 +2.188625e-04 +4.347223e-03
1.047129e+08 +2.197816e-04 +4.451651e-03 +9.997802e-01 -4.451651e-03 +9.997802e-01 -4.451651e-03 +2.197816e-04 +4.451651e-03
1.064560e+08 +2.204924e-04 +4.530772e-03 +9.997795e-01 -4.530772e-03 +9.997795e-01 -4.530772e-03 +2.204924e-04 +4.530772e-03
1.083927e+08 +2.212960e-04 +4.618582e-03 +9.997787e-01 -4.618582e-03 +9.997787e-01 -4.618582e-03 +2.212960e-04 +4.618582e-03
1.106565e+08 +2.222538e-04 +4.721106e-03 +9.997777e-01 -4.721106e-03 +9.997777e-01 -4.721106e-03 +2.222538e-04 +4.721106e-03
1.122018e+08 +2.229190e-04 +4.791021e-03 +9.997771e-01 -4.791021e-03 +9.997771e-01 -4.791021e-03 +2.229190e-04 +4.791021e-03
1.150227e+08 +2.241572e-04 +4.918509e-03 +9.997758e-01 -4.918509e-03 +9.997758e-01 -4.918509e-03 +2.241572e-04 +4.918509e-03
1.161449e+08 +2.246583e-04 +4.969176e-03 +9.997753e-01 -4.969176e-03 +9.997753e-01 -4.969176e-03 +2.246583e-04 +4.969176e-03
1.195612e+08 +2.262139e-04 +5.123278e-03 +9.997738e-01 -5.123278e-03 +9.997738e-01 -5.123278e-03 +2.262139e-04 +5.123278e-03
1.202264e+08 +2.265221e-04 +5.153257e-03 +9.997735e-01 -5.153257e-03 +9.997735e-01 -5.153257e-03 +2.265221e-04 +5.153257e-03
1.242788e+08 +2.284364e-04 +5.335719e-03 +9.997716e-01 -5.335719e-03 +9.997716e-01 -5.335719e-03 +2.284364e-04 +5.335719e-03
1.244515e+08 +2.285194e-04 +5.343486e-03 +9.997715e-01 -5.343486e-03 +9.997715e-01 -5.343486e-03 +2.285194e-04 +5.343486e-03
1.288250e+08 +2.306597e-04 +5.540087e-03 +9.997693e-01 -5.540087e-03 +9.997693e-01 -5.540087e-03 +2.306597e-04 +5.540087e-03
1.291826e+08 +2.308379e-04 +5.556150e-03 +9.997692e-01 -5.556150e-03 +9.997692e-01 -5.556150e-03 +2.308379e-04 +5.556150e-03
1.333521e+08 +2.329532e-04 +5.743297e-03 +9.997670e-01 -5.743297e-03 +9.997670e-01 -5.743297e-03 +2.329532e-04 +5.743297e-03
1.342798e+08 +2.334329e-04 +5.784900e-03 +9.997666e-01 -5.784900e-03 +9.997666e-01 -5.784900e-03 +2.334329e-04 +5.784900e-03
1.380384e+08 +2.354108e-04 +5.953357e-03 +9.997646e-01 -5.953357e-03 +9.997646e-01 -5.953357e-03 +2.354108e-04 +5.953357e-03
1.395781e+08 +2.362368e-04 +6.022313e-03 +9.997638e-01 -6.022313e-03 +9.997638e-01 -6.022313e-03 +2.362368e-04 +6.022313e-03
1.428894e+08 +2.380444e-04 +6.170517e-03 +9.997620e-01 -6.170517e-03 +9.997620e-01 -6.170517e-03 +2.380444e-04 +6.170517e-03
1.450855e+08 +2.392665e-04 +6.268743e-03 +9.997607e-01 -6.268743e-03 +9.997607e-01 -6.268743e-03 +2.392665e-04 +6.268743e-03
1.479108e+08 +2.408664e-04 +6.395036e-03 +9.997591e-01 -6.395036e-03 +9.997591e-01 -6.395036e-03 +2.408664e-04 +6.395036e-03
1.508102e+08 +2.425402e-04 +6.524559e-03 +9.997575e-01 -6.524559e-03 +9.997575e-01 -6.524559e-03 +2.425402e-04 +6.524559e-03
1.531087e+08 +2.438903e-04 +6.627183e-03 +9.997561e-01 -6.627183e-03 +9.997561e-01 -6.627183e-03 +2.438903e-04 +6.627183e-03
1.567608e+08 +2.460774e-04 +6.790144e-03 +9.997539e-01 -6.790144e-03 +9.997539e-01 -6.790144e-03 +2.460774e-04 +6.790144e-03
1.584893e+08 +2.471306e-04 +6.867233e-03 +9.997529e-01 -6.867233e-03 +9.997529e-01 -6.867233e-03 +2.471306e-04 +6.867233e-03
1.629462e+08 +2.498994e-04 +7.065895e-03 +9.997501e-01 -7.065895e-03 +9.997501e-01 -7.065895e-03 +2.498994e-04 +7.065895e-03
1.640590e+08 +2.506027e-04 +7.115473e-03 +9.997494e-01 -7.115473e-03 +9.997494e-01 -7.115473e-03 +2.506027e-04 +7.115473e-03
1.693756e+08 +2.540290e-04 +7.352225e-03 +9.997460e-01 -7.352225e-03 +9.997460e-01 -7.352225e-03 +2.540290e-04 +7.352225e-03
1.698244e+08 +2.543231e-04 +7.372198e-03 +9.997457e-01 -7.372198e-03 +9.997457e-01 -7.372198e-03 +2.543231e-04 +7.372198e-03
1.757924e+08 +2.583098e-04 +7.637715e-03 +9.997417e-01 -7.637715e-03 +9.997417e-01 -7.637715e-03 +2.583098e-04 +7.637715e-03
1.760588e+08 +2.584909e-04 +7.649562e-03 +9.997415e-01 -7.649562e-03 +9.997415e-01 -7.649562e-03 +2.584909e-04 +7.649562e-03
1.819701e+08 +2.625816e-04 +7.912339e-03 +9.997374e-01 -7.912339e-03 +9.997374e-01 -7.912339e-03 +2.625816e-04 +7.912339e-03
1.830056e+08 +2.633120e-04 +7.958351e-03 +9.997367e-01 -7.958351e-03 +9.997367e-01 -7.958351e-03 +2.633120e-04 +7.958351e-03
1.883649e+08 +2.671589e-04 +8.196398e-03 +9.997328e-01 -8.196398e-03 +9.997328e-01 -8.196398e-03 +2.671589e-04 +8.196398e-03
1.902265e+08 +2.685212e-04 +8.279054e-03 +9.997315e-01 -8.279054e-03 +9.997315e-01 -8.279054e-03 +2.685212e-04 +8.279054e-03
1.949845e+08 +2.720636e-04 +8.490231e-03 +9.997279e-01 -8.490231e-03 +9.997279e-01 -8.490231e-03 +2.720636e-04 +8.490231e-03
2.018366e+08 +2.773192e-04 +8.794187e-03 +9.997227e-01 -8.794187e-03 +9.997227e-01 -8.794187e-03 +2.773192e-04 +8.794187e-03
2.089296e+08 +2.829506e-04 +9.108628e-03 +9.997170e-01 -9.108628e-03 +9.997170e-01 -9.108628e-03 +2.829506e-04 +9.108628e-03
2.162719e+08 +2.889847e-04 +9.433928e-03 +9.997110e-01 -9.433928e-03 +9.997110e-01 -9.433928e-03 +2.889847e-04 +9.433928e-03
2.238721e+08 +2.954504e-04 +9.770476e-03 +9.997045e-01 -9.770476e-03 +9.997045e-01 -9.770476e-03 +2.954504e-04 +9.770476e-03
2.317395e+08 +3.023785e-04 +1.011867e-02 +9.996976e-01 -1.011867e-02 +9.996976e-01 -1.011867e-02 +3.023785e-04 +1.011867e-02
2.398833e+08 +3.098020e-04 +1.047893e-02 +9.996902e-01 -1.047893e-02 +9.996902e-01 -1.047893e-02 +3.098020e-04 +1.047893e-02
2.483133e+08 +3.177563e-04 +1.085168e-02 +9.996822e-01 -1.085168e-02 +9.996822e-01 -1.085168e-02 +3.177563e-04 +1.085168e-02
2.570396e+08 +3.262794e-04 +1.123736e-02 +9.996737e-01 -1.123736e-02 +9.996737e-01 -1.123736e-02 +3.262794e-04 +1.123736e-02
2.660725e+08 +3.354120e-04 +1.163643e-02 +9.996646e-01 -1.163643e-02 +9.996646e-01 -1.163643e-02 +3.354120e-04 +1.163643e-02
2.754229e+08 +3.451975e-04 +1.204937e-02 +9.996548e-01 -1.204937e-02 +9.996548e-01 -1.204937e-02 +3.451975e-04 +1.204937e-02
2.851018e+08 +3.556828e-04 +1.247667e-02 +9.996443e-01 -1.247667e-02 +9.996443e-01 -1.247667e-02 +3.556828e-04 +1.247667e-02
2.951209e+08 +3.669177e-04 +1.291884e-02 +9.996331e-01 -1.291884e-02 +9.996331e-01 -1.291884e-02 +3.669177e-04 +1.291884e-02
3.054921e+08 +3.789559e-04 +1.337640e-02 +9.996210e-01 -1.337640e-02 +9.996210e-01 -1.337640e-02 +3.789559e-04 +1.337640e-02
3.162278e+08 +3.918548e-04 +1.384989e-02 +9.996081e-01 -1.384989e-02 +9.996081e-01 -1.384989e-02 +3.918548e-04 +1.384989e-02
3.273407e+08 +4.056758e-04 +1.433989e-02 +9.995943e-01 -1.433989e-02 +9.995943e-01 -1.433989e-02 +4.056758e-04 +1.433989e-02
3.388442e+08 +4.204849e-04 +1.484696e-02 +9.995795e-01 -1.484696e-02 +9.995795e-01 -1.484696e-02 +4.204849e-04 +1.484696e-02
3.507519e+08 +4.363527e-04 +1.537171e-02 +9.995636e-01 -1.537171e-02 +9.995636e-01 -1.537171e-02 +4.363527e-04 +1.537171e-02
3.630781e+08 +4.533548e-04 +1.591477e-02 +9.995466e-01 -1.591477e-02 +9.995466e-01 -1.591477e-02 +4.533548e-04 +1.591477e-02
3.758374e+08 +4.715722e-04 +1.647678e-02 +9.995284e-01 -1.647678e-02 +9.995284e-01 -1.647678e-02 +4.715722e-04 +1.647678e-02
3.890451e+08 +4.910918e-04 +1.705840e-02 +9.995089e-01 -1.705840e-02 +9.995089e-01 -1.705840e-02 +4.910918e-04 +1.705840e-02
4.027170e+08 +5.120067e-04 +1.766032e-02 +9.994880e-01 -1.766032e-02 +9.994880e-01 -1.766032e-02 +5.120067e-04 +1.766032e-02
4.168694e+08 +5.344163e-04 +1.828326e-02 +9.994656e-01 -1.828326e-02 +9.994656e-01 -1.828326e-02 +5.344163e-04 +1.828326e-02
4.315191e+08 +5.584276e-04 +1.892795e-02 +9.994416e-01 -1.892795e-02 +9.994416e-01 -1.892795e-02 +5.584276e-04 +1.892795e-02
4.466836e+08 +5.841549e-04 +1.959517e-02 +9.994158e-01 -1.959517e-02 +9.994158e-01 -1.959517e-02 +5.841549e-04 +1.959517e-02
4.623810e+08 +6.117208e-04 +2.028568e-02 +9.993883e-01 -2.028568e-02 +9.993883e-01 -2.028568e-02 +6.117208e-04 +2.028568e-02
4.786301e+08 +6.412565e-04 +2.100032e-02 +9.993587e-01 -2.100032e-02 +9.993587e-01 -2.100032e-02 +6.412565e-04 +2.100032e-02
4.954502e+08 +6.729026e-04 +2.173992e-02 +9.993271e-01 -2.173992e-02 +9.993271e-01 -2.173992e-02 +6.729026e-04 +2.173992e-02
5.128614e+08 +7.068098e-04 +2.250537e-02 +9.992932e-01 -2.250537e-02 +9.992932e-01 -2.250537e-02 +7.068098e-04 +2.250537e-02
5.308844e+08 +7.431395e-04 +2.329755e-02 +9.992569e-01 -2.329755e-02 +9.992569e-01 -2.329755e-02 +7.431395e-04 +2.329755e-02
5.495409e+08 +7.820645e-04 +2.411741e-02 +9.992179e-01 -2.411741e-02 +9.992179e-01 -2.411741e-02 +7.820645e-04 +2.411741e-02
5.688529e+08 +8.237700e-04 +2.496590e-02 +9.991762e-01 -2.496590e-02 +9.991762e-01 -2.496590e-02 +8.237700e-04 +2.496590e-02
5.888437e+08 +8.684545e-04 +2.584403e-02 +9.991315e-01 -2.584403e-02 +9.991315e-01 -2.584403e-02 +8.684545e-04 +2.584403e-02
6.095369e+08 +9.163303e-04 +2.675283e-02 +9.990837e-01 -2.675283e-02 +9.990837e-01 -2.675283e-02 +9.163303e-04 +2.675283e-02
6.309573e+08 +9.676251e-04 +2.769336e-02 +9.990324e-01 -2.769336e-02 +9.990324e-01 -2.769336e-02 +9.676251e-04 +2.769336e-02
6.531306e+08 +1.022583e-03 +2.866673e-02 +9.989774e-01 -2.866673e-02 +9.989774e-01 -2.866673e-02 +1.022583e-03 +2.866673e-02
6.760830e+08 +1.081464e-03 +2.967407e-02 +9.989185e-01 -2.967407e-02 +9.989185e-01 -2.967407e-02 +1.081464e-03 +2.967407e-02
6.998420e+08 +1.144549e-03 +3.071657e-02 +9.988555e-01 -3.071657e-02 +9.988555e-01 -3.071657e-02 +1.144549e-03 +3.071657e-02
7.244360e+08 +1.212137e-03 +3.179543e-02 +9.987879e-01 -3.179543e-02 +9.987879e-01 -3.179543e-02 +1.212137e-03 +3.179543e-02
7.498942e+08 +1.284548e-03 +3.291192e-02 +9.987155e-01 -3.291192e-02 +9.987155e-01 -3.291192e-02 +1.284548e-03 +3.291192e-02
7.762471e+08 +1.362127e-03 +3.406734e-02 +9.986379e-01 -3.406734e-02 +9.986379e-01 -3.406734e-02 +1.362127e-03 +3.406734e-02
8.035261e+08 +1.445240e-03 +3.526302e-02 +9.985548e-01 -3.526302e-02 +9.985548e-01 -3.526302e-02 +1.445240e-03 +3.526302e-02
8.317638e+08 +1.534283e-03 +3.650035e-02 +9.984657e-01 -3.650035e-02 +9.984657e-01 -3.650035e-02 +1.534283e-03 +3.650035e-02
8.609938e+08 +1.629676e-03 +3.778076e-02 +9.983703e-01 -3.778076e-02 +9.983703e-01 -3.778076e-02 +1.629676e-03 +3.778076e-02
8.912509e+08 +1.731871e-03 +3.910573e-02 +9.982681e-01 -3.910573e-02 +9.982681e-01 -3.910573e-02 +1.731871e-03 +3.910573e-02
9.225714e+08 +1.841352e-03 +4.047678e-02 +9.981586e-01 -4.047678e-02 +9.981586e-01 -4.047678e-02 +1.841352e-03 +4.047678e-02
9.549926e+08 +1.958636e-03 +4.189549e-02 +9.980414e-01 -4.189549e-02 +9.980414e-01 -4.189549e-02 +1.958636e-03 +4.189549e-02
9.885531e+08 +2.084278e-03 +4.336348e-02 +9.979157e-01 -4.336348e-02 +9.979157e-01 -4.336348e-02 +2.084278e-03 +4.336348e-02
1.023293e+09 +2.218871e-03 +4.488242e-02 +9.977811e-01 -4.488242e-02 +9.977811e-01 -4.488242e-02 +2.218871e-03 +4.488242e-02
1.059254e+09 +2.363049e-03 +4.645404e-02 +9.976370e-01 -4.645404e-02 +9.976370e-01 -4.645404e-02 +2.363049e-03 +4.645404e-02
1.096478e+09 +2.517493e-03 +4.808013e-02 +9.974825e-01 -4.808013e-02 +9.974825e-01 -4.808013e-02 +2.517493e-03 +4.808013e-02
1.135011e+09 +2.682929e-03 +4.976251e-02 +9.973171e-01 -4.976251e-02 +9.973171e-01 -4.976251e-02 +2.682929e-03 +4.976251e-02
1.174898e+09 +2.860137e-03 +5.150309e-02 +9.971399e-01 -5.150309e-02 +9.971399e-01 -5.150309e-02 +2.860137e-03 +5.150309e-02
1.216186e+09 +3.049948e-03 +5.330380e-02 +9.969501e-01 -5.330380e-02 +9.969501e-01 -5.330380e-02 +3.049948e-03 +5.330380e-02
1.258925e+09 +3.253254e-03 +5.516666e-02 +9.967467e-01 -5.516666e-02 +9.967467e-01 -5.516666e-02 +3.253254e-03 +5.516666e-02
1.303167e+09 +3.471008e-03 +5.709373e-02 +9.965290e-01 -5.709373e-02 +9.965290e-01 -5.709373e-02 +3.471008e-03 +5.709373e-02
1.348963e+09 +3.704231e-03 +5.908714e-02 +9.962958e-01 -5.908714e-02 +9.962958e-01 -5.908714e-02 +3.704231e-03 +5.908714e-02
1.396368e+09 +3.954012e-03 +6.114907e-02 +9.960460e-01 -6.114907e-02 +9.960460e-01 -6.114907e-02 +3.954012e-03 +6.114907e-02
1.445440e+09 +4.221519e-03 +6.328176e-02 +9.957785e-01 -6.328176e-02 +9.957785e-01 -6.328176e-02 +4.221519e-03 +6.328176e-02
1.496236e+09 +4.507998e-03 +6.548753e-02 +9.954920e-01 -6.548753e-02 +9.954920e-01 -6.548753e-02 +4.507998e-03 +6.548753e-02
1.548817e+09 +4.814782e-03 +6.776875e-02 +9.951852e-01 -6.776875e-02 +9.951852e-01 -6.776875e-02 +4.814782e-03 +6.776875e-02
1.603245e+09 +5.143299e-03 +7.012784e-02 +9.948567e-01 -7.012784e-02 +9.948567e-01 -7.012784e-02 +5.143299e-03 +7.012784e-02
1.659587e+09 +5.495069e-03 +7.256730e-02 +9.945049e-01 -7.256730e-02 +9.945049e-01 -7.256730e-02 +5.495069e-03 +7.256730e-02
1.717908e+09 +5.871722e-03 +7.508968e-02 +9.941283e-01 -7.508968e-02 +9.941283e-01 -7.508968e-02 +5.871722e-03 +7.508968e-02
1.778279e+09 +6.274997e-03 +7.769759e-02 +9.937250e-01 -7.769759e-02 +9.937250e-01 -7.769759e-02 +6.274997e-03 +7.769759e-02
1.840772e+09 +6.706751e-03 +8.039373e-02 +9.932932e-01 -8.039373e-02 +9.932932e-01 -8.039373e-02 +6.706751e-03 +8.039373e-02
1.905461e+09 +7.168967e-03 +8.318080e-02 +9.928310e-01 -8.318080e-02 +9.928310e-01 -8.318080e-02 +7.168967e-03 +8.318080e-02
1.972423e+09 +7.663763e-03 +8.606162e-02 +9.923362e-01 -8.606162e-02 +9.923362e-01 -8.606162e-02 +7.663763e-03 +8.606162e-02
2.041738e+09 +8.193400e-03 +8.903902e-02 +9.918066e-01 -8.903902e-02 +9.918066e-01 -8.903902e-02 +8.193400e-03 +8.903902e-02
2.113489e+09 +8.760289e-03 +9.211589e-02 +9.912397e-01 -9.211589e-02 +9.912397e-01 -9.211589e-02 +8.760289e-03 +9.211589e-02
2.187762e+09 +9.367002e-03 +9.529520e-02 +9.906330e-01 -9.529520e-02 +9.906330e-01 -9.529520e-02 +9.367002e-03 +9.529520e-02
2.264644e+09 +1.001628e-02 +9.857992e-02 +9.899837e-01 -9.857992e-02 +9.899837e-01 -9.857992e-02 +1.001628e-02 +9.857992e-02
2.344229e+09 +1.071106e-02 +1.019731e-01 +9.892889e-01 -1.019731e-01 +9.892889e-01 -1.019731e-01 +1.071106e-02 +1.019731e-01
2.426610e+09 +1.145444e-02 +1.054778e-01 +9.885456e-01 -1.054778e-01 +9.885456e-01 -1.054778e-01 +1.145444e-02 +1.054778e-01
2.511886e+09 +1.224975e-02 +1.090971e-01 +9.877503e-01 -1.090971e-01 +9.877503e-01 -1.090971e-01 +1.224975e-02 +1.090971e-01
2.600160e+09 +1.310052e-02 +1.128342e-01 +9.868995e-01 -1.128342e-01 +9.868995e-01 -1.128342e-01 +1.310052e-02 +1.128342e-01
2.691535e+09 +1.401051e-02 +1.166922e-01 +9.859895e-01 -1.166922e-01 +9.859895e-01 -1.166922e-01 +1.401051e-02 +1.166922e-01
2.786121e+09 +1.498372e-02 +1.206741e-01 +9.850163e-01 -1.206741e-01 +9.850163e-01 -1.206741e-01 +1.498372e-02 +1.206741e-01
2.884032e+09 +1.602441e-02 +1.247833e-01 +9.839756e-01 -1.247833e-01 +9.839756e-01 -1.247833e-01 +1.602441e-02 +1.247833e-01
2.985383e+09 +1.713709e-02 +1.290228e-01 +9.828629e-01 -1.290228e-01 +9.828629e-01 -1.290228e-01 +1.713709e-02 +1.290228e-01
3.090295e+09 +1.832656e-02 +1.333956e-01 +9.816734e-01 -1.333956e-01 +9.816734e-01 -1.333956e-01 +1.832656e-02 +1.333956e-01
3.198895e+09 +1.959790e-02 +1.379050e-01 +9.804021e-01 -1.379050e-01 +9.804021e-01 -1.379050e-01 +1.959790e-02 +1.379050e-01
3.311311e+09 +2.095652e-02 +1.425538e-01 +9.790435e-01 -1.425538e-01 +9.790435e-01 -1.425538e-01 +2.095652e-02 +1.425538e-01
3.427678e+09 +2.240814e-02 +1.473450e-01 +9.775919e-01 -1.473450e-01 +9.775919e-01 -1.473450e-01 +2.240814e-02 +1.473450e-01
3.548134e+09 +2.395880e-02 +1.522814e-01 +9.760412e-01 -1.522814e-01 +9.760412e-01 -1.522814e-01 +2.395880e-02 +1.522814e-01
3.672823e+09 +2.561492e-02 +1.573657e-01 +9.743851e-01 -1.573657e-01 +9.743851e-01 -1.573657e-01 +2.561492e-02 +1.573657e-01
3.801894e+09 +2.738326e-02 +1.626005e-01 +9.726167e-01 -1.626005e-01 +9.726167e-01 -1.626005e-01 +2.738326e-02 +1.626005e-01
3.935501e+09 +2.927095e-02 +1.679883e-01 +9.707290e-01 -1.679883e-01 +9.707290e-01 -1.679883e-01 +2.927095e-02 +1.679883e-01
4.073803e+09 +3.128554e-02 +1.735311e-01 +9.687145e-01 -1.735311e-01 +9.687145e-01 -1.735311e-01 +3.128554e-02 +1.735311e-01
4.216965e+09 +3.343495e-02 +1.792311e-01 +9.665651e-01 -1.792311e-01 +9.665651e-01 -1.792311e-01 +3.343495e-02 +1.792311e-01
4.365158e+09 +3.572752e-02 +1.850898e-01 +9.642725e-01 -1.850898e-01 +9.642725e-01 -1.850898e-01 +3.572752e-02 +1.850898e-01
4.518559e+09 +3.817202e-02 +1.911088e-01 +9.618280e-01 -1.911088e-01 +9.618280e-01 -1.911088e-01 +3.817202e-02 +1.911088e-01
4.677351e+09 +4.077762e-02 +1.972891e-01 +9.592224e-01 -1.972891e-01 +9.592224e-01 -1.972891e-01 +4.077762e-02 +1.972891e-01
4.841724e+09 +4.355396e-02 +2.036314e-01 +9.564460e-01 -2.036314e-01 +9.564460e-01 -2.036314e-01 +4.355396e-02 +2.036314e-01
5.011872e+09 +4.651108e-02 +2.101360e-01 +9.534889e-01 -2.101360e-01 +9.534889e-01 -2.101360e-01 +4.651108e-02 +2.101360e-01
5.188000e+09 +4.965946e-02 +2.168026e-01 +9.503405e-01 -2.168026e-01 +9.503405e-01 -2.168026e-01 +4.965946e-02 +2.168026e-01
5.370318e+09 +5.301001e-02 +2.236305e-01 +9.469900e-01 -2.236305e-01 +9.469900e-01 -2.236305e-01 +5.301001e-02 +2.236305e-01
5.559043e+09 +5.657408e-02 +2.306183e-01 +9.434259e-01 -2.306183e-01 +9.434259e-01 -2.306183e-01 +5.657408e-02 +2.306183e-01
5.754399e+09 +6.036339e-02 +2.377641e-01 +9.396366e-01 -2.377641e-01 +9.396366e-01 -2.377641e-01 +6.036339e-02 +2.377641e-01
5.956621e+09 +6.439006e-02 +2.450651e-01 +9.356099e-01 -2.450651e-01 +9.356099e-01 -2.450651e-01 +6.439006e-02 +2.450651e-01
6.165950e+09 +6.866660e-02 +2.525179e-01 +9.313334e-01 -2.525179e-01 +9.313334e-01 -2.525179e-01 +6.866660e-02 +2.525179e-01
6.382635e+09 +7.320582e-02 +2.601181e-01 +9.267942e-01 -2.601181e-01 +9.267942e-01 -2.601181e-01 +7.320582e-02 +2.601181e-01
6.606934e+09 +7.802082e-02 +2.678604e-01 +9.219792e-01 -2.678604e-01 +9.219792e-01 -2.678604e-01 +7.802082e-02 +2.678604e-01
6.839116e+09 +8.312497e-02 +2.757388e-01 +9.168750e-01 -2.757388e-01 +9.168750e-01 -2.757388e-01 +8.312497e-02 +2.757388e-01
7.079458e+09 +8.853182e-02 +2.837458e-01 +9.114682e-01 -2.837458e-01 +9.114682e-01 -2.837458e-01 +8.853182e-02 +2.837458e-01
7.328245e+09 +9.425503e-02 +2.918731e-01 +9.057450e-01 -2.918731e-01 +9.057450e-01 -2.918731e-01 +9.425503e-02 +2.918731e-01
7.585776e+09 +1.003083e-01 +3.001111e-01 +8.996917e-01 -3.001111e-01 +8.996917e-01 -3.001111e-01 +1.003083e-01 +3.001111e-01
7.852356e+09 +1.067054e-01 +3.084489e-01 +8.932946e-01 -3.084489e-01 +8.932946e-01 -3.084489e-01 +1.067054e-01 +3.084489e-01
8.128305e+09 +1.134598e-01 +3.168744e-01 +8.865402e-01 -3.168744e-01 +8.865402e-01 -3.168744e-01 +1.134598e-01 +3.168744e-01
8.413951e+09 +1.205848e-01 +3.253740e-01 +8.794152e-01 -3.253740e-01 +8.794152e-01 -3.253740e-01 +1.205848e-01 +3.253740e-01
8.709636e+09 +1.280933e-01 +3.339327e-01 +8.719067e-01 -3.339327e-01 +8.719067e-01 -3.339327e-01 +1.280933e-01 +3.339327e-01
9.015711e+09 +1.359979e-01 +3.425342e-01 +8.640021e-01 -3.425342e-01 +8.640021e-01 -3.425342e-01 +1.359979e-01 +3.425342e-01
9.332543e+09 +1.443102e-01 +3.511605e-01 +8.556898e-01 -3.511605e-01 +8.556898e-01 -3.511605e-01 +1.443102e-01 +3.511605e-01
9.660509e+09 +1.530413e-01 +3.597921e-01 +8.469587e-01 -3.597921e-01 +8.469587e-01 -3.597921e-01 +1.530413e-01 +3.597921e-01
1.000000e+10 +1.622013e-01 +3.684081e-01 +8.377987e-01 -3.684081e-01 +8.377987e-01 -3.684081e-01 +1.622013e-01 +3.684081e-01
