! Touchstone 2-port S-parameters  (series-through model)
! Part: GRM188R71C104_DATASHEET_GRADE
! Generated: 2026-06-14 12:55 UTC  by s2p tool
! Reference impedance: 50.0 Ohm
! ESL estimated from SRF: 0.633 nH (SRF=20.0 MHz) [PHYSICS ESTIMATE]
! ESTIMATED / behavioral model - NOT manufacturer-measured data.
# Hz S RI R 50
! freq        ReS11      ImS11      ReS21      ImS21      ReS12      ImS12      ReS22      ImS22
1.000000e+04 +7.169321e-01 -4.504263e-01 +2.830679e-01 +4.504263e-01 +2.830679e-01 +4.504263e-01 +7.169321e-01 -4.504263e-01
1.035142e+04 +7.027072e-01 -4.570015e-01 +2.972928e-01 +4.570015e-01 +2.972928e-01 +4.570015e-01 +7.027072e-01 -4.570015e-01
1.071519e+04 +6.880784e-01 -4.632107e-01 +3.119216e-01 +4.632107e-01 +3.119216e-01 +4.632107e-01 +6.880784e-01 -4.632107e-01
1.109175e+04 +6.730649e-01 -4.690236e-01 +3.269351e-01 +4.690236e-01 +3.269351e-01 +4.690236e-01 +6.730649e-01 -4.690236e-01
1.148154e+04 +6.576883e-01 -4.744112e-01 +3.423117e-01 +4.744112e-01 +3.423117e-01 +4.744112e-01 +6.576883e-01 -4.744112e-01
1.188502e+04 +6.419733e-01 -4.793454e-01 +3.580267e-01 +4.793454e-01 +3.580267e-01 +4.793454e-01 +6.419733e-01 -4.793454e-01
1.230269e+04 +6.259473e-01 -4.838000e-01 +3.740527e-01 +4.838000e-01 +3.740527e-01 +4.838000e-01 +6.259473e-01 -4.838000e-01
1.273503e+04 +6.096403e-01 -4.877509e-01 +3.903597e-01 +4.877509e-01 +3.903597e-01 +4.877509e-01 +6.096403e-01 -4.877509e-01
1.318257e+04 +5.930847e-01 -4.911760e-01 +4.069153e-01 +4.911760e-01 +4.069153e-01 +4.911760e-01 +5.930847e-01 -4.911760e-01
1.364583e+04 +5.763150e-01 -4.940560e-01 +4.236850e-01 +4.940560e-01 +4.236850e-01 +4.940560e-01 +5.763150e-01 -4.940560e-01
1.412538e+04 +5.593679e-01 -4.963742e-01 +4.406321e-01 +4.963742e-01 +4.406321e-01 +4.963742e-01 +5.593679e-01 -4.963742e-01
1.462177e+04 +5.422815e-01 -4.981172e-01 +4.577185e-01 +4.981172e-01 +4.577185e-01 +4.981172e-01 +5.422815e-01 -4.981172e-01
1.513561e+04 +5.250952e-01 -4.992747e-01 +4.749048e-01 +4.992747e-01 +4.749048e-01 +4.992747e-01 +5.250952e-01 -4.992747e-01
1.566751e+04 +5.078495e-01 -4.998399e-01 +4.921505e-01 +4.998399e-01 +4.921505e-01 +4.998399e-01 +5.078495e-01 -4.998399e-01
1.621810e+04 +4.905853e-01 -4.998095e-01 +5.094147e-01 +4.998095e-01 +5.094147e-01 +4.998095e-01 +4.905853e-01 -4.998095e-01
1.678804e+04 +4.733438e-01 -4.991835e-01 +5.266562e-01 +4.991835e-01 +5.266562e-01 +4.991835e-01 +4.733438e-01 -4.991835e-01
1.737801e+04 +4.561659e-01 -4.979657e-01 +5.438341e-01 +4.979657e-01 +5.438341e-01 +4.979657e-01 +4.561659e-01 -4.979657e-01
1.798871e+04 +4.390919e-01 -4.961633e-01 +5.609081e-01 +4.961633e-01 +5.609081e-01 +4.961633e-01 +4.390919e-01 -4.961633e-01
1.862087e+04 +4.221612e-01 -4.937870e-01 +5.778388e-01 +4.937870e-01 +5.778388e-01 +4.937870e-01 +4.221612e-01 -4.937870e-01
1.927525e+04 +4.054118e-01 -4.908505e-01 +5.945882e-01 +4.908505e-01 +5.945882e-01 +4.908505e-01 +4.054118e-01 -4.908505e-01
1.995262e+04 +3.888800e-01 -4.873706e-01 +6.111200e-01 +4.873706e-01 +6.111200e-01 +4.873706e-01 +3.888800e-01 -4.873706e-01
2.065380e+04 +3.726002e-01 -4.833672e-01 +6.273998e-01 +4.833672e-01 +6.273998e-01 +4.833672e-01 +3.726002e-01 -4.833672e-01
2.137962e+04 +3.566047e-01 -4.788623e-01 +6.433953e-01 +4.788623e-01 +6.433953e-01 +4.788623e-01 +3.566047e-01 -4.788623e-01
2.213095e+04 +3.409231e-01 -4.738805e-01 +6.590769e-01 +4.738805e-01 +6.590769e-01 +4.738805e-01 +3.409231e-01 -4.738805e-01
2.290868e+04 +3.255825e-01 -4.684482e-01 +6.744175e-01 +4.684482e-01 +6.744175e-01 +4.684482e-01 +3.255825e-01 -4.684482e-01
2.371374e+04 +3.106073e-01 -4.625933e-01 +6.893927e-01 +4.625933e-01 +6.893927e-01 +4.625933e-01 +3.106073e-01 -4.625933e-01
2.454709e+04 +2.960190e-01 -4.563453e-01 +7.039810e-01 +4.563453e-01 +7.039810e-01 +4.563453e-01 +2.960190e-01 -4.563453e-01
2.540973e+04 +2.818363e-01 -4.497343e-01 +7.181637e-01 +4.497343e-01 +7.181637e-01 +4.497343e-01 +2.818363e-01 -4.497343e-01
2.630268e+04 +2.680747e-01 -4.427915e-01 +7.319253e-01 +4.427915e-01 +7.319253e-01 +4.427915e-01 +2.680747e-01 -4.427915e-01
2.722701e+04 +2.547473e-01 -4.355480e-01 +7.452527e-01 +4.355480e-01 +7.452527e-01 +4.355480e-01 +2.547473e-01 -4.355480e-01
2.818383e+04 +2.418640e-01 -4.280353e-01 +7.581360e-01 +4.280353e-01 +7.581360e-01 +4.280353e-01 +2.418640e-01 -4.280353e-01
2.917427e+04 +2.294321e-01 -4.202844e-01 +7.705679e-01 +4.202844e-01 +7.705679e-01 +4.202844e-01 +2.294321e-01 -4.202844e-01
3.019952e+04 +2.174566e-01 -4.123260e-01 +7.825434e-01 +4.123260e-01 +7.825434e-01 +4.123260e-01 +2.174566e-01 -4.123260e-01
3.126079e+04 +2.059396e-01 -4.041902e-01 +7.940604e-01 +4.041902e-01 +7.940604e-01 +4.041902e-01 +2.059396e-01 -4.041902e-01
3.235937e+04 +1.948813e-01 -3.959060e-01 +8.051187e-01 +3.959060e-01 +8.051187e-01 +3.959060e-01 +1.948813e-01 -3.959060e-01
3.349654e+04 +1.842795e-01 -3.875015e-01 +8.157205e-01 +3.875015e-01 +8.157205e-01 +3.875015e-01 +1.842795e-01 -3.875015e-01
3.467369e+04 +1.741303e-01 -3.790037e-01 +8.258697e-01 +3.790037e-01 +8.258697e-01 +3.790037e-01 +1.741303e-01 -3.790037e-01
3.589219e+04 +1.644281e-01 -3.704381e-01 +8.355719e-01 +3.704381e-01 +8.355719e-01 +3.704381e-01 +1.644281e-01 -3.704381e-01
3.715352e+04 +1.551655e-01 -3.618290e-01 +8.448345e-01 +3.618290e-01 +8.448345e-01 +3.618290e-01 +1.551655e-01 -3.618290e-01
3.845918e+04 +1.463340e-01 -3.531992e-01 +8.536660e-01 +3.531992e-01 +8.536660e-01 +3.531992e-01 +1.463340e-01 -3.531992e-01
3.981072e+04 +1.379237e-01 -3.445698e-01 +8.620763e-01 +3.445698e-01 +8.620763e-01 +3.445698e-01 +1.379237e-01 -3.445698e-01
4.120975e+04 +1.299239e-01 -3.359609e-01 +8.700761e-01 +3.359609e-01 +8.700761e-01 +3.359609e-01 +1.299239e-01 -3.359609e-01
4.265795e+04 +1.223229e-01 -3.273905e-01 +8.776771e-01 +3.273905e-01 +8.776771e-01 +3.273905e-01 +1.223229e-01 -3.273905e-01
4.415704e+04 +1.151085e-01 -3.188755e-01 +8.848915e-01 +3.188755e-01 +8.848915e-01 +3.188755e-01 +1.151085e-01 -3.188755e-01
4.570882e+04 +1.082678e-01 -3.104313e-01 +8.917322e-01 +3.104313e-01 +8.917322e-01 +3.104313e-01 +1.082678e-01 -3.104313e-01
4.731513e+04 +1.017876e-01 -3.020716e-01 +8.982124e-01 +3.020716e-01 +8.982124e-01 +3.020716e-01 +1.017876e-01 -3.020716e-01
4.897788e+04 +9.565433e-02 -2.938090e-01 +9.043457e-01 +2.938090e-01 +9.043457e-01 +2.938090e-01 +9.565433e-02 -2.938090e-01
5.069907e+04 +8.985441e-02 -2.856547e-01 +9.101456e-01 +2.856547e-01 +9.101456e-01 +2.856547e-01 +8.985441e-02 -2.856547e-01
5.248075e+04 +8.437409e-02 -2.776185e-01 +9.156259e-01 +2.776185e-01 +9.156259e-01 +2.776185e-01 +8.437409e-02 -2.776185e-01
5.432503e+04 +7.919969e-02 -2.697091e-01 +9.208003e-01 +2.697091e-01 +9.208003e-01 +2.697091e-01 +7.919969e-02 -2.697091e-01
5.623413e+04 +7.431762e-02 -2.619340e-01 +9.256824e-01 +2.619340e-01 +9.256824e-01 +2.619340e-01 +7.431762e-02 -2.619340e-01
5.821032e+04 +6.971447e-02 -2.542997e-01 +9.302855e-01 +2.542997e-01 +9.302855e-01 +2.542997e-01 +6.971447e-02 -2.542997e-01
6.025596e+04 +6.537707e-02 -2.468117e-01 +9.346229e-01 +2.468117e-01 +9.346229e-01 +2.468117e-01 +6.537707e-02 -2.468117e-01
6.237348e+04 +6.129253e-02 -2.394745e-01 +9.387075e-01 +2.394745e-01 +9.387075e-01 +2.394745e-01 +6.129253e-02 -2.394745e-01
6.456542e+04 +5.744827e-02 -2.322918e-01 +9.425517e-01 +2.322918e-01 +9.425517e-01 +2.322918e-01 +5.744827e-02 -2.322918e-01
6.683439e+04 +5.383209e-02 -2.252665e-01 +9.461679e-01 +2.252665e-01 +9.461679e-01 +2.252665e-01 +5.383209e-02 -2.252665e-01
6.918310e+04 +5.043216e-02 -2.184007e-01 +9.495678e-01 +2.184007e-01 +9.495678e-01 +2.184007e-01 +5.043216e-02 -2.184007e-01
7.161434e+04 +4.723703e-02 -2.116960e-01 +9.527630e-01 +2.116960e-01 +9.527630e-01 +2.116960e-01 +4.723703e-02 -2.116960e-01
7.413102e+04 +4.423571e-02 -2.051531e-01 +9.557643e-01 +2.051531e-01 +9.557643e-01 +2.051531e-01 +4.423571e-02 -2.051531e-01
7.673615e+04 +4.141761e-02 -1.987725e-01 +9.585824e-01 +1.987725e-01 +9.585824e-01 +1.987725e-01 +4.141761e-02 -1.987725e-01
7.943282e+04 +3.877257e-02 -1.925540e-01 +9.612274e-01 +1.925540e-01 +9.612274e-01 +1.925540e-01 +3.877257e-02 -1.925540e-01
8.222426e+04 +3.629087e-02 -1.864970e-01 +9.637091e-01 +1.864970e-01 +9.637091e-01 +1.864970e-01 +3.629087e-02 -1.864970e-01
8.511380e+04 +3.396323e-02 -1.806006e-01 +9.660368e-01 +1.806006e-01 +9.660368e-01 +1.806006e-01 +3.396323e-02 -1.806006e-01
8.810489e+04 +3.178078e-02 -1.748633e-01 +9.682192e-01 +1.748633e-01 +9.682192e-01 +1.748633e-01 +3.178078e-02 -1.748633e-01
9.120108e+04 +2.973509e-02 -1.692835e-01 +9.702649e-01 +1.692835e-01 +9.702649e-01 +1.692835e-01 +2.973509e-02 -1.692835e-01
9.440609e+04 +2.781812e-02 -1.638593e-01 +9.721819e-01 +1.638593e-01 +9.721819e-01 +1.638593e-01 +2.781812e-02 -1.638593e-01
9.772372e+04 +2.602226e-02 -1.585886e-01 +9.739777e-01 +1.585886e-01 +9.739777e-01 +1.585886e-01 +2.602226e-02 -1.585886e-01
1.011579e+05 +2.434026e-02 -1.534690e-01 +9.756597e-01 +1.534690e-01 +9.756597e-01 +1.534690e-01 +2.434026e-02 -1.534690e-01
1.047129e+05 +2.276529e-02 -1.484979e-01 +9.772347e-01 +1.484979e-01 +9.772347e-01 +1.484979e-01 +2.276529e-02 -1.484979e-01
1.083927e+05 +2.129084e-02 -1.436727e-01 +9.787092e-01 +1.436727e-01 +9.787092e-01 +1.436727e-01 +2.129084e-02 -1.436727e-01
1.122018e+05 +1.991079e-02 -1.389905e-01 +9.800892e-01 +1.389905e-01 +9.800892e-01 +1.389905e-01 +1.991079e-02 -1.389905e-01
1.161449e+05 +1.861933e-02 -1.344486e-01 +9.813807e-01 +1.344486e-01 +9.813807e-01 +1.344486e-01 +1.861933e-02 -1.344486e-01
1.202264e+05 +1.741100e-02 -1.300438e-01 +9.825890e-01 +1.300438e-01 +9.825890e-01 +1.300438e-01 +1.741100e-02 -1.300438e-01
1.244515e+05 +1.628063e-02 -1.257731e-01 +9.837194e-01 +1.257731e-01 +9.837194e-01 +1.257731e-01 +1.628063e-02 -1.257731e-01
1.288250e+05 +1.522336e-02 -1.216334e-01 +9.847766e-01 +1.216334e-01 +9.847766e-01 +1.216334e-01 +1.522336e-02 -1.216334e-01
1.333521e+05 +1.423461e-02 -1.176217e-01 +9.857654e-01 +1.176217e-01 +9.857654e-01 +1.176217e-01 +1.423461e-02 -1.176217e-01
1.380384e+05 +1.331006e-02 -1.137348e-01 +9.866899e-01 +1.137348e-01 +9.866899e-01 +1.137348e-01 +1.331006e-02 -1.137348e-01
1.428894e+05 +1.244565e-02 -1.099695e-01 +9.875544e-01 +1.099695e-01 +9.875544e-01 +1.099695e-01 +1.244565e-02 -1.099695e-01
1.479108e+05 +1.163757e-02 -1.063226e-01 +9.883624e-01 +1.063226e-01 +9.883624e-01 +1.063226e-01 +1.163757e-02 -1.063226e-01
1.531087e+05 +1.088223e-02 -1.027912e-01 +9.891178e-01 +1.027912e-01 +9.891178e-01 +1.027912e-01 +1.088223e-02 -1.027912e-01
1.584893e+05 +1.017627e-02 -9.937196e-02 +9.898237e-01 +9.937196e-02 +9.898237e-01 +9.937196e-02 +1.017627e-02 -9.937196e-02
1.640590e+05 +9.516515e-03 -9.606193e-02 +9.904835e-01 +9.606193e-02 +9.904835e-01 +9.606193e-02 +9.516515e-03 -9.606193e-02
1.698244e+05 +8.900003e-03 -9.285802e-02 +9.911000e-01 +9.285802e-02 +9.911000e-01 +9.285802e-02 +8.900003e-03 -9.285802e-02
1.757924e+05 +8.323948e-03 -8.975725e-02 +9.916761e-01 +8.975725e-02 +9.916761e-01 +8.975725e-02 +8.323948e-03 -8.975725e-02
1.819701e+05 +7.785738e-03 -8.675665e-02 +9.922143e-01 +8.675665e-02 +9.922143e-01 +8.675665e-02 +7.785738e-03 -8.675665e-02
1.883649e+05 +7.282924e-03 -8.385332e-02 +9.927171e-01 +8.385332e-02 +9.927171e-01 +8.385332e-02 +7.282924e-03 -8.385332e-02
1.949845e+05 +6.813210e-03 -8.104439e-02 +9.931868e-01 +8.104439e-02 +9.931868e-01 +8.104439e-02 +6.813210e-03 -8.104439e-02
2.018366e+05 +6.374447e-03 -7.832706e-02 +9.936256e-01 +7.832706e-02 +9.936256e-01 +7.832706e-02 +6.374447e-03 -7.832706e-02
2.089296e+05 +5.964619e-03 -7.569858e-02 +9.940354e-01 +7.569858e-02 +9.940354e-01 +7.569858e-02 +5.964619e-03 -7.569858e-02
2.162719e+05 +5.581840e-03 -7.315627e-02 +9.944182e-01 +7.315627e-02 +9.944182e-01 +7.315627e-02 +5.581840e-03 -7.315627e-02
2.238721e+05 +5.224345e-03 -7.069749e-02 +9.947757e-01 +7.069749e-02 +9.947757e-01 +7.069749e-02 +5.224345e-03 -7.069749e-02
2.317395e+05 +4.890478e-03 -6.831968e-02 +9.951095e-01 +6.831968e-02 +9.951095e-01 +6.831968e-02 +4.890478e-03 -6.831968e-02
2.398833e+05 +4.578694e-03 -6.602034e-02 +9.954213e-01 +6.602034e-02 +9.954213e-01 +6.602034e-02 +4.578694e-03 -6.602034e-02
2.483133e+05 +4.287543e-03 -6.379700e-02 +9.957125e-01 +6.379700e-02 +9.957125e-01 +6.379700e-02 +4.287543e-03 -6.379700e-02
2.570396e+05 +4.015672e-03 -6.164730e-02 +9.959843e-01 +6.164730e-02 +9.959843e-01 +6.164730e-02 +4.015672e-03 -6.164730e-02
2.660725e+05 +3.761813e-03 -5.956890e-02 +9.962382e-01 +5.956890e-02 +9.962382e-01 +5.956890e-02 +3.761813e-03 -5.956890e-02
2.754229e+05 +3.524781e-03 -5.755955e-02 +9.964752e-01 +5.755955e-02 +9.964752e-01 +5.755955e-02 +3.524781e-03 -5.755955e-02
2.851018e+05 +3.303469e-03 -5.561705e-02 +9.966965e-01 +5.561705e-02 +9.966965e-01 +5.561705e-02 +3.303469e-03 -5.561705e-02
2.951209e+05 +3.096839e-03 -5.373926e-02 +9.969032e-01 +5.373926e-02 +9.969032e-01 +5.373926e-02 +3.096839e-03 -5.373926e-02
3.054921e+05 +2.903924e-03 -5.192410e-02 +9.970961e-01 +5.192410e-02 +9.970961e-01 +5.192410e-02 +2.903924e-03 -5.192410e-02
3.162278e+05 +2.723818e-03 -5.016954e-02 +9.972762e-01 +5.016954e-02 +9.972762e-01 +5.016954e-02 +2.723818e-03 -5.016954e-02
3.273407e+05 +2.555674e-03 -4.847364e-02 +9.974443e-01 +4.847364e-02 +9.974443e-01 +4.847364e-02 +2.555674e-03 -4.847364e-02
3.388442e+05 +2.398702e-03 -4.683447e-02 +9.976013e-01 +4.683447e-02 +9.976013e-01 +4.683447e-02 +2.398702e-03 -4.683447e-02
3.507519e+05 +2.252162e-03 -4.525020e-02 +9.977478e-01 +4.525020e-02 +9.977478e-01 +4.525020e-02 +2.252162e-03 -4.525020e-02
3.630781e+05 +2.115365e-03 -4.371902e-02 +9.978846e-01 +4.371902e-02 +9.978846e-01 +4.371902e-02 +2.115365e-03 -4.371902e-02
3.758374e+05 +1.987664e-03 -4.223921e-02 +9.980123e-01 +4.223921e-02 +9.980123e-01 +4.223921e-02 +1.987664e-03 -4.223921e-02
3.890451e+05 +1.868458e-03 -4.080907e-02 +9.981315e-01 +4.080907e-02 +9.981315e-01 +4.080907e-02 +1.868458e-03 -4.080907e-02
4.027170e+05 +1.757182e-03 -3.942697e-02 +9.982428e-01 +3.942697e-02 +9.982428e-01 +3.942697e-02 +1.757182e-03 -3.942697e-02
4.168694e+05 +1.653311e-03 -3.809131e-02 +9.983467e-01 +3.809131e-02 +9.983467e-01 +3.809131e-02 +1.653311e-03 -3.809131e-02
4.315191e+05 +1.556353e-03 -3.680058e-02 +9.984436e-01 +3.680058e-02 +9.984436e-01 +3.680058e-02 +1.556353e-03 -3.680058e-02
4.466836e+05 +1.465850e-03 -3.555327e-02 +9.985341e-01 +3.555327e-02 +9.985341e-01 +3.555327e-02 +1.465850e-03 -3.555327e-02
4.623810e+05 +1.381373e-03 -3.434794e-02 +9.986186e-01 +3.434794e-02 +9.986186e-01 +3.434794e-02 +1.381373e-03 -3.434794e-02
4.786301e+05 +1.302522e-03 -3.318321e-02 +9.986975e-01 +3.318321e-02 +9.986975e-01 +3.318321e-02 +1.302522e-03 -3.318321e-02
4.954502e+05 +1.228922e-03 -3.205772e-02 +9.987711e-01 +3.205772e-02 +9.987711e-01 +3.205772e-02 +1.228922e-03 -3.205772e-02
5.128614e+05 +1.160225e-03 -3.097016e-02 +9.988398e-01 +3.097016e-02 +9.988398e-01 +3.097016e-02 +1.160225e-03 -3.097016e-02
5.308844e+05 +1.096105e-03 -2.991926e-02 +9.989039e-01 +2.991926e-02 +9.989039e-01 +2.991926e-02 +1.096105e-03 -2.991926e-02
5.495409e+05 +1.036256e-03 -2.890380e-02 +9.989637e-01 +2.890380e-02 +9.989637e-01 +2.890380e-02 +1.036256e-03 -2.890380e-02
5.688529e+05 +9.803966e-04 -2.792260e-02 +9.990196e-01 +2.792260e-02 +9.990196e-01 +2.792260e-02 +9.803966e-04 -2.792260e-02
5.888437e+05 +9.282595e-04 -2.697450e-02 +9.990717e-01 +2.697450e-02 +9.990717e-01 +2.697450e-02 +9.282595e-04 -2.697450e-02
6.095369e+05 +8.795974e-04 -2.605839e-02 +9.991204e-01 +2.605839e-02 +9.991204e-01 +2.605839e-02 +8.795974e-04 -2.605839e-02
6.309573e+05 +8.341790e-04 -2.517320e-02 +9.991658e-01 +2.517320e-02 +9.991658e-01 +2.517320e-02 +8.341790e-04 -2.517320e-02
6.531306e+05 +7.917883e-04 -2.431789e-02 +9.992082e-01 +2.431789e-02 +9.992082e-01 +2.431789e-02 +7.917883e-04 -2.431789e-02
6.760830e+05 +7.522239e-04 -2.349145e-02 +9.992478e-01 +2.349145e-02 +9.992478e-01 +2.349145e-02 +7.522239e-04 -2.349145e-02
6.998420e+05 +7.152973e-04 -2.269292e-02 +9.992847e-01 +2.269292e-02 +9.992847e-01 +2.269292e-02 +7.152973e-04 -2.269292e-02
7.244360e+05 +6.808330e-04 -2.192135e-02 +9.993192e-01 +2.192135e-02 +9.993192e-01 +2.192135e-02 +6.808330e-04 -2.192135e-02
7.498942e+05 +6.486670e-04 -2.117583e-02 +9.993513e-01 +2.117583e-02 +9.993513e-01 +2.117583e-02 +6.486670e-04 -2.117583e-02
7.762471e+05 +6.186459e-04 -2.045549e-02 +9.993814e-01 +2.045549e-02 +9.993814e-01 +2.045549e-02 +6.186459e-04 -2.045549e-02
8.035261e+05 +5.906271e-04 -1.975946e-02 +9.994094e-01 +1.975946e-02 +9.994094e-01 +1.975946e-02 +5.906271e-04 -1.975946e-02
8.317638e+05 +5.644770e-04 -1.908694e-02 +9.994355e-01 +1.908694e-02 +9.994355e-01 +1.908694e-02 +5.644770e-04 -1.908694e-02
8.609938e+05 +5.400710e-04 -1.843712e-02 +9.994599e-01 +1.843712e-02 +9.994599e-01 +1.843712e-02 +5.400710e-04 -1.843712e-02
8.912509e+05 +5.172930e-04 -1.780924e-02 +9.994827e-01 +1.780924e-02 +9.994827e-01 +1.780924e-02 +5.172930e-04 -1.780924e-02
9.225714e+05 +4.960344e-04 -1.720255e-02 +9.995040e-01 +1.720255e-02 +9.995040e-01 +1.720255e-02 +4.960344e-04 -1.720255e-02
9.549926e+05 +4.761939e-04 -1.661633e-02 +9.995238e-01 +1.661633e-02 +9.995238e-01 +1.661633e-02 +4.761939e-04 -1.661633e-02
9.885531e+05 +4.576770e-04 -1.604989e-02 +9.995423e-01 +1.604989e-02 +9.995423e-01 +1.604989e-02 +4.576770e-04 -1.604989e-02
1.023293e+06 +4.403954e-04 -1.550257e-02 +9.995596e-01 +1.550257e-02 +9.995596e-01 +1.550257e-02 +4.403954e-04 -1.550257e-02
1.059254e+06 +4.242668e-04 -1.497370e-02 +9.995757e-01 +1.497370e-02 +9.995757e-01 +1.497370e-02 +4.242668e-04 -1.497370e-02
1.096478e+06 +4.092142e-04 -1.446266e-02 +9.995908e-01 +1.446266e-02 +9.995908e-01 +1.446266e-02 +4.092142e-04 -1.446266e-02
1.135011e+06 +3.951659e-04 -1.396885e-02 +9.996048e-01 +1.396885e-02 +9.996048e-01 +1.396885e-02 +3.951659e-04 -1.396885e-02
1.174898e+06 +3.820550e-04 -1.349168e-02 +9.996179e-01 +1.349168e-02 +9.996179e-01 +1.349168e-02 +3.820550e-04 -1.349168e-02
1.216186e+06 +3.698188e-04 -1.303058e-02 +9.996302e-01 +1.303058e-02 +9.996302e-01 +1.303058e-02 +3.698188e-04 -1.303058e-02
1.258925e+06 +3.583992e-04 -1.258501e-02 +9.996416e-01 +1.258501e-02 +9.996416e-01 +1.258501e-02 +3.583992e-04 -1.258501e-02
1.303167e+06 +3.477415e-04 -1.215443e-02 +9.996523e-01 +1.215443e-02 +9.996523e-01 +1.215443e-02 +3.477415e-04 -1.215443e-02
1.348963e+06 +3.377950e-04 -1.173833e-02 +9.996622e-01 +1.173833e-02 +9.996622e-01 +1.173833e-02 +3.377950e-04 -1.173833e-02
1.396368e+06 +3.285122e-04 -1.133622e-02 +9.996715e-01 +1.133622e-02 +9.996715e-01 +1.133622e-02 +3.285122e-04 -1.133622e-02
1.445440e+06 +3.198489e-04 -1.094763e-02 +9.996802e-01 +1.094763e-02 +9.996802e-01 +1.094763e-02 +3.198489e-04 -1.094763e-02
1.496236e+06 +3.117637e-04 -1.057208e-02 +9.996882e-01 +1.057208e-02 +9.996882e-01 +1.057208e-02 +3.117637e-04 -1.057208e-02
1.548817e+06 +3.042181e-04 -1.020913e-02 +9.996958e-01 +1.020913e-02 +9.996958e-01 +1.020913e-02 +3.042181e-04 -1.020913e-02
1.603245e+06 +2.971760e-04 -9.858354e-03 +9.997028e-01 +9.858354e-03 +9.997028e-01 +9.858354e-03 +2.971760e-04 -9.858354e-03
1.659587e+06 +2.906040e-04 -9.519329e-03 +9.997094e-01 +9.519329e-03 +9.997094e-01 +9.519329e-03 +2.906040e-04 -9.519329e-03
1.717908e+06 +2.844705e-04 -9.191653e-03 +9.997155e-01 +9.191653e-03 +9.997155e-01 +9.191653e-03 +2.844705e-04 -9.191653e-03
1.778279e+06 +2.787464e-04 -8.874935e-03 +9.997213e-01 +8.874935e-03 +9.997213e-01 +8.874935e-03 +2.787464e-04 -8.874935e-03
1.840772e+06 +2.734044e-04 -8.568798e-03 +9.997266e-01 +8.568798e-03 +9.997266e-01 +8.568798e-03 +2.734044e-04 -8.568798e-03
1.905461e+06 +2.684189e-04 -8.272878e-03 +9.997316e-01 +8.272878e-03 +9.997316e-01 +8.272878e-03 +2.684189e-04 -8.272878e-03
1.972423e+06 +2.637662e-04 -7.986823e-03 +9.997362e-01 +7.986823e-03 +9.997362e-01 +7.986823e-03 +2.637662e-04 -7.986823e-03
2.000000e+06 +2.619845e-04 -7.874531e-03 +9.997380e-01 +7.874531e-03 +9.997380e-01 +7.874531e-03 +2.619845e-04 -7.874531e-03
2.041738e+06 +2.594240e-04 -7.710291e-03 +9.997406e-01 +7.710291e-03 +9.997406e-01 +7.710291e-03 +2.594240e-04 -7.710291e-03
2.078915e+06 +2.572720e-04 -7.569494e-03 +9.997427e-01 +7.569494e-03 +9.997427e-01 +7.569494e-03 +2.572720e-04 -7.569494e-03
2.113489e+06 +2.553717e-04 -7.442953e-03 +9.997446e-01 +7.442953e-03 +9.997446e-01 +7.442953e-03 +2.553717e-04 -7.442953e-03
2.160944e+06 +2.529105e-04 -7.275789e-03 +9.997471e-01 +7.275789e-03 +9.997471e-01 +7.275789e-03 +2.529105e-04 -7.275789e-03
2.187762e+06 +2.515899e-04 -7.184491e-03 +9.997484e-01 +7.184491e-03 +9.997484e-01 +7.184491e-03 +2.515899e-04 -7.184491e-03
2.246209e+06 +2.488739e-04 -6.992978e-03 +9.997511e-01 +6.992978e-03 +9.997511e-01 +6.992978e-03 +2.488739e-04 -6.992978e-03
2.264644e+06 +2.480606e-04 -6.934597e-03 +9.997519e-01 +6.934597e-03 +9.997519e-01 +6.934597e-03 +2.480606e-04 -6.934597e-03
2.334839e+06 +2.451380e-04 -6.720636e-03 +9.997549e-01 +6.720636e-03 +9.997549e-01 +6.720636e-03 +2.451380e-04 -6.720636e-03
2.344229e+06 +2.447669e-04 -6.692972e-03 +9.997552e-01 +6.692972e-03 +9.997552e-01 +6.692972e-03 +2.447669e-04 -6.692972e-03
2.426610e+06 +2.416930e-04 -6.459330e-03 +9.997583e-01 +6.459330e-03 +9.997583e-01 +6.459330e-03 +2.416930e-04 -6.459330e-03
2.426966e+06 +2.416805e-04 -6.458356e-03 +9.997583e-01 +6.458356e-03 +9.997583e-01 +6.458356e-03 +2.416805e-04 -6.458356e-03
2.511886e+06 +2.388245e-04 -6.233392e-03 +9.997612e-01 +6.233392e-03 +9.997612e-01 +6.233392e-03 +2.388245e-04 -6.233392e-03
2.522727e+06 +2.384805e-04 -6.205746e-03 +9.997615e-01 +6.205746e-03 +9.997615e-01 +6.205746e-03 +2.384805e-04 -6.205746e-03
2.600160e+06 +2.361474e-04 -6.014887e-03 +9.997639e-01 +6.014887e-03 +9.997639e-01 +6.014887e-03 +2.361474e-04 -6.014887e-03
2.622268e+06 +2.355189e-04 -5.962428e-03 +9.997645e-01 +5.962428e-03 +9.997645e-01 +5.962428e-03 +2.355189e-04 -5.962428e-03
2.691535e+06 +2.336492e-04 -5.803557e-03 +9.997664e-01 +5.803557e-03 +9.997664e-01 +5.803557e-03 +2.336492e-04 -5.803557e-03
2.725736e+06 +2.327781e-04 -5.728038e-03 +9.997672e-01 +5.728038e-03 +9.997672e-01 +5.728038e-03 +2.327781e-04 -5.728038e-03
2.786121e+06 +2.313177e-04 -5.599148e-03 +9.997687e-01 +5.599148e-03 +9.997687e-01 +5.599148e-03 +2.313177e-04 -5.599148e-03
2.833287e+06 +2.302415e-04 -5.502225e-03 +9.997698e-01 +5.502225e-03 +9.997698e-01 +5.502225e-03 +2.302415e-04 -5.502225e-03
2.884032e+06 +2.291420e-04 -5.401418e-03 +9.997709e-01 +5.401418e-03 +9.997709e-01 +5.401418e-03 +2.291420e-04 -5.401418e-03
2.945081e+06 +2.278939e-04 -5.284651e-03 +9.997721e-01 +5.284651e-03 +9.997721e-01 +5.284651e-03 +2.278939e-04 -5.284651e-03
2.985383e+06 +2.271116e-04 -5.210130e-03 +9.997729e-01 +5.210130e-03 +9.997729e-01 +5.210130e-03 +2.271116e-04 -5.210130e-03
3.061286e+06 +2.257214e-04 -5.074991e-03 +9.997743e-01 +5.074991e-03 +9.997743e-01 +5.074991e-03 +2.257214e-04 -5.074991e-03
3.090295e+06 +2.252169e-04 -5.025057e-03 +9.997748e-01 +5.025057e-03 +9.997748e-01 +5.025057e-03 +2.252169e-04 -5.025057e-03
3.182077e+06 +2.237108e-04 -4.872930e-03 +9.997763e-01 +4.872930e-03 +9.997763e-01 +4.872930e-03 +2.237108e-04 -4.872930e-03
3.198895e+06 +2.234488e-04 -4.845977e-03 +9.997766e-01 +4.845977e-03 +9.997766e-01 +4.845977e-03 +2.234488e-04 -4.845977e-03
3.307634e+06 +2.218501e-04 -4.678166e-03 +9.997781e-01 +4.678166e-03 +9.997781e-01 +4.678166e-03 +2.218501e-04 -4.678166e-03
3.311311e+06 +2.217988e-04 -4.672678e-03 +9.997782e-01 +4.672678e-03 +9.997782e-01 +4.672678e-03 +2.217988e-04 -4.672678e-03
3.427678e+06 +2.202591e-04 -4.504953e-03 +9.997797e-01 +4.504953e-03 +9.997797e-01 +4.504953e-03 +2.202591e-04 -4.504953e-03
3.438144e+06 +2.201282e-04 -4.490408e-03 +9.997799e-01 +4.490408e-03 +9.997799e-01 +4.490408e-03 +2.201282e-04 -4.490408e-03
3.548134e+06 +2.188223e-04 -4.342601e-03 +9.997812e-01 +4.342601e-03 +9.997812e-01 +4.342601e-03 +2.188223e-04 -4.342601e-03
3.573805e+06 +2.185348e-04 -4.309374e-03 +9.997815e-01 +4.309374e-03 +9.997815e-01 +4.309374e-03 +2.185348e-04 -4.309374e-03
3.672823e+06 +2.174816e-04 -4.185429e-03 +9.997825e-01 +4.185429e-03 +9.997825e-01 +4.185429e-03 +2.174816e-04 -4.185429e-03
3.714818e+06 +2.170602e-04 -4.134794e-03 +9.997829e-01 +4.134794e-03 +9.997829e-01 +4.134794e-03 +2.170602e-04 -4.134794e-03
3.801894e+06 +2.162306e-04 -4.033250e-03 +9.997838e-01 +4.033250e-03 +9.997838e-01 +4.033250e-03 +2.162306e-04 -4.033250e-03
3.861395e+06 +2.156958e-04 -3.966406e-03 +9.997843e-01 +3.966406e-03 +9.997843e-01 +3.966406e-03 +2.156958e-04 -3.966406e-03
3.935501e+06 +2.150633e-04 -3.885882e-03 +9.997849e-01 +3.885882e-03 +9.997849e-01 +3.885882e-03 +2.150633e-04 -3.885882e-03
4.013756e+06 +2.144332e-04 -3.803958e-03 +9.997856e-01 +3.803958e-03 +9.997856e-01 +3.803958e-03 +2.144332e-04 -3.803958e-03
4.073803e+06 +2.139742e-04 -3.743149e-03 +9.997860e-01 +3.743149e-03 +9.997860e-01 +3.743149e-03 +2.139742e-04 -3.743149e-03
4.172129e+06 +2.132650e-04 -3.647206e-03 +9.997867e-01 +3.647206e-03 +9.997867e-01 +3.647206e-03 +2.132650e-04 -3.647206e-03
4.216965e+06 +2.129579e-04 -3.604882e-03 +9.997870e-01 +3.604882e-03 +9.997870e-01 +3.604882e-03 +2.129579e-04 -3.604882e-03
4.336751e+06 +2.121840e-04 -3.495917e-03 +9.997878e-01 +3.495917e-03 +9.997878e-01 +3.495917e-03 +2.121840e-04 -3.495917e-03
4.365158e+06 +2.120098e-04 -3.470915e-03 +9.997880e-01 +3.470915e-03 +9.997880e-01 +3.470915e-03 +2.120098e-04 -3.470915e-03
4.507868e+06 +2.111840e-04 -3.349864e-03 +9.997888e-01 +3.349864e-03 +9.997888e-01 +3.349864e-03 +2.111840e-04 -3.349864e-03
4.518559e+06 +2.111252e-04 -3.341088e-03 +9.997889e-01 +3.341088e-03 +9.997889e-01 +3.341088e-03 +2.111252e-04 -3.341088e-03
4.677351e+06 +2.103000e-04 -3.215247e-03 +9.997897e-01 +3.215247e-03 +9.997897e-01 +3.215247e-03 +2.103000e-04 -3.215247e-03
4.685737e+06 +2.102587e-04 -3.208827e-03 +9.997897e-01 +3.208827e-03 +9.997897e-01 +3.208827e-03 +2.102587e-04 -3.208827e-03
4.841724e+06 +2.095302e-04 -3.093242e-03 +9.997905e-01 +3.093242e-03 +9.997905e-01 +3.093242e-03 +2.095302e-04 -3.093242e-03
4.870624e+06 +2.094028e-04 -3.072596e-03 +9.997906e-01 +3.072596e-03 +9.997906e-01 +3.072596e-03 +2.094028e-04 -3.072596e-03
5.011872e+06 +2.088120e-04 -2.974926e-03 +9.997912e-01 +2.974926e-03 +9.997912e-01 +2.974926e-03 +2.088120e-04 -2.974926e-03
5.062807e+06 +2.086111e-04 -2.940966e-03 +9.997914e-01 +2.940966e-03 +9.997914e-01 +2.940966e-03 +2.086111e-04 -2.940966e-03
5.188000e+06 +2.081422e-04 -2.860160e-03 +9.997919e-01 +2.860160e-03 +9.997919e-01 +2.860160e-03 +2.081422e-04 -2.860160e-03
5.262572e+06 +2.078788e-04 -2.813741e-03 +9.997921e-01 +2.813741e-03 +9.997921e-01 +2.813741e-03 +2.078788e-04 -2.813741e-03
5.370318e+06 +2.075175e-04 -2.748805e-03 +9.997925e-01 +2.748805e-03 +9.997925e-01 +2.748805e-03 +2.075175e-04 -2.748805e-03
5.470220e+06 +2.072015e-04 -2.690731e-03 +9.997928e-01 +2.690731e-03 +9.997928e-01 +2.690731e-03 +2.072015e-04 -2.690731e-03
5.559043e+06 +2.069349e-04 -2.640730e-03 +9.997931e-01 +2.640730e-03 +9.997931e-01 +2.640730e-03 +2.069349e-04 -2.640730e-03
5.686061e+06 +2.065753e-04 -2.571750e-03 +9.997934e-01 +2.571750e-03 +9.997934e-01 +2.571750e-03 +2.065753e-04 -2.571750e-03
5.754399e+06 +2.063916e-04 -2.535805e-03 +9.997936e-01 +2.535805e-03 +9.997936e-01 +2.535805e-03 +2.063916e-04 -2.535805e-03
5.910418e+06 +2.059962e-04 -2.456621e-03 +9.997940e-01 +2.456621e-03 +9.997940e-01 +2.456621e-03 +2.059962e-04 -2.456621e-03
5.956621e+06 +2.058851e-04 -2.433905e-03 +9.997941e-01 +2.433905e-03 +9.997941e-01 +2.433905e-03 +2.058851e-04 -2.433905e-03
6.143629e+06 +2.054610e-04 -2.345171e-03 +9.997945e-01 +2.345171e-03 +9.997945e-01 +2.345171e-03 +2.054610e-04 -2.345171e-03
6.165950e+06 +2.054129e-04 -2.334909e-03 +9.997946e-01 +2.334909e-03 +9.997946e-01 +2.334909e-03 +2.054129e-04 -2.334909e-03
6.382635e+06 +2.049728e-04 -2.238698e-03 +9.997950e-01 +2.238698e-03 +9.997950e-01 +2.238698e-03 +2.049728e-04 -2.238698e-03
6.386041e+06 +2.049662e-04 -2.237233e-03 +9.997950e-01 +2.237233e-03 +9.997950e-01 +2.237233e-03 +2.049662e-04 -2.237233e-03
6.606934e+06 +2.045627e-04 -2.145158e-03 +9.997954e-01 +2.145158e-03 +9.997954e-01 +2.145158e-03 +2.045627e-04 -2.145158e-03
6.638018e+06 +2.045091e-04 -2.132646e-03 +9.997955e-01 +2.132646e-03 +9.997955e-01 +2.132646e-03 +2.045091e-04 -2.132646e-03
6.839116e+06 +2.041805e-04 -2.054177e-03 +9.997958e-01 +2.054177e-03 +9.997958e-01 +2.054177e-03 +2.041805e-04 -2.054177e-03
6.899937e+06 +2.040868e-04 -2.031254e-03 +9.997959e-01 +2.031254e-03 +9.997959e-01 +2.031254e-03 +2.040868e-04 -2.031254e-03
7.079458e+06 +2.038246e-04 -1.965647e-03 +9.997962e-01 +1.965647e-03 +9.997962e-01 +1.965647e-03 +2.038246e-04 -1.965647e-03
7.172191e+06 +2.036969e-04 -1.932903e-03 +9.997963e-01 +1.932903e-03 +9.997963e-01 +1.932903e-03 +2.036969e-04 -1.932903e-03
7.328245e+06 +2.034931e-04 -1.879461e-03 +9.997965e-01 +1.879461e-03 +9.997965e-01 +1.879461e-03 +2.034931e-04 -1.879461e-03
7.455187e+06 +2.033369e-04 -1.837448e-03 +9.997967e-01 +1.837448e-03 +9.997967e-01 +1.837448e-03 +2.033369e-04 -1.837448e-03
7.585776e+06 +2.031845e-04 -1.795518e-03 +9.997968e-01 +1.795518e-03 +9.997968e-01 +1.795518e-03 +2.031845e-04 -1.795518e-03
7.749350e+06 +2.030048e-04 -1.744744e-03 +9.997970e-01 +1.744744e-03 +9.997970e-01 +1.744744e-03 +2.030048e-04 -1.744744e-03
7.852356e+06 +2.028974e-04 -1.713717e-03 +9.997971e-01 +1.713717e-03 +9.997971e-01 +1.713717e-03 +2.028974e-04 -1.713717e-03
8.055120e+06 +2.026984e-04 -1.654654e-03 +9.997973e-01 +1.654654e-03 +9.997973e-01 +1.654654e-03 +2.026984e-04 -1.654654e-03
8.128305e+06 +2.026304e-04 -1.633961e-03 +9.997974e-01 +1.633961e-03 +9.997974e-01 +1.633961e-03 +2.026304e-04 -1.633961e-03
8.372955e+06 +2.024161e-04 -1.567042e-03 +9.997976e-01 +1.567042e-03 +9.997976e-01 +1.567042e-03 +2.024161e-04 -1.567042e-03
8.413951e+06 +2.023821e-04 -1.556153e-03 +9.997976e-01 +1.556153e-03 +9.997976e-01 +1.556153e-03 +2.023821e-04 -1.556153e-03
8.703330e+06 +2.021561e-04 -1.481777e-03 +9.997978e-01 +1.481777e-03 +9.997978e-01 +1.481777e-03 +2.021561e-04 -1.481777e-03
8.709636e+06 +2.021515e-04 -1.480202e-03 +9.997978e-01 +1.480202e-03 +9.997978e-01 +1.480202e-03 +2.021515e-04 -1.480202e-03
9.015711e+06 +2.019373e-04 -1.406018e-03 +9.997981e-01 +1.406018e-03 +9.997981e-01 +1.406018e-03 +2.019373e-04 -1.406018e-03
9.046741e+06 +2.019169e-04 -1.398731e-03 +9.997981e-01 +1.398731e-03 +9.997981e-01 +1.398731e-03 +2.019169e-04 -1.398731e-03
9.332543e+06 +2.017386e-04 -1.333510e-03 +9.997983e-01 +1.333510e-03 +9.997983e-01 +1.333510e-03 +2.017386e-04 -1.333510e-03
9.403703e+06 +2.016969e-04 -1.317780e-03 +9.997983e-01 +1.317780e-03 +9.997983e-01 +1.317780e-03 +2.016969e-04 -1.317780e-03
9.660509e+06 +2.015545e-04 -1.262593e-03 +9.997984e-01 +1.262593e-03 +9.997984e-01 +1.262593e-03 +2.015545e-04 -1.262593e-03
9.774749e+06 +2.014949e-04 -1.238803e-03 +9.997985e-01 +1.238803e-03 +9.997985e-01 +1.238803e-03 +2.014949e-04 -1.238803e-03
1.000000e+07 +2.013840e-04 -1.193183e-03 +9.997986e-01 +1.193183e-03 +9.997986e-01 +1.193183e-03 +2.013840e-04 -1.193183e-03
1.016044e+07 +2.013098e-04 -1.161681e-03 +9.997987e-01 +1.161681e-03 +9.997987e-01 +1.161681e-03 +2.013098e-04 -1.161681e-03
1.035142e+07 +2.012263e-04 -1.125196e-03 +9.997988e-01 +1.125196e-03 +9.997988e-01 +1.125196e-03 +2.012263e-04 -1.125196e-03
1.056134e+07 +2.011403e-04 -1.086299e-03 +9.997989e-01 +1.086299e-03 +9.997989e-01 +1.086299e-03 +2.011403e-04 -1.086299e-03
1.071519e+07 +2.010808e-04 -1.058552e-03 +9.997989e-01 +1.058552e-03 +9.997989e-01 +1.058552e-03 +2.010808e-04 -1.058552e-03
1.097806e+07 +2.009855e-04 -1.012545e-03 +9.997990e-01 +1.012545e-03 +9.997990e-01 +1.012545e-03 +2.009855e-04 -1.012545e-03
1.109175e+07 +2.009466e-04 -9.931701e-04 +9.997991e-01 +9.931701e-04 +9.997991e-01 +9.931701e-04 +2.009466e-04 -9.931701e-04
1.141123e+07 +2.008444e-04 -9.403064e-04 +9.997992e-01 +9.403064e-04 +9.997992e-01 +9.403064e-04 +2.008444e-04 -9.403064e-04
1.148154e+07 +2.008232e-04 -9.289734e-04 +9.997992e-01 +9.289734e-04 +9.997992e-01 +9.289734e-04 +2.008232e-04 -9.289734e-04
1.186149e+07 +2.007161e-04 -8.694765e-04 +9.997993e-01 +8.694765e-04 +9.997993e-01 +8.694765e-04 +2.007161e-04 -8.694765e-04
1.188502e+07 +2.007099e-04 -8.658849e-04 +9.997993e-01 +8.658849e-04 +9.997993e-01 +8.658849e-04 +2.007099e-04 -8.658849e-04
1.230269e+07 +2.006063e-04 -8.038295e-04 +9.997994e-01 +8.038295e-04 +9.997994e-01 +8.038295e-04 +2.006063e-04 -8.038295e-04
1.232951e+07 +2.006001e-04 -7.999489e-04 +9.997994e-01 +7.999489e-04 +9.997994e-01 +7.999489e-04 +2.006001e-04 -7.999489e-04
1.273503e+07 +2.005118e-04 -7.427330e-04 +9.997995e-01 +7.427330e-04 +9.997995e-01 +7.427330e-04 +2.005118e-04 -7.427330e-04
1.281601e+07 +2.004954e-04 -7.316194e-04 +9.997995e-01 +7.316194e-04 +9.997995e-01 +7.316194e-04 +2.004954e-04 -7.316194e-04
1.318257e+07 +2.004259e-04 -6.825227e-04 +9.997996e-01 +6.825227e-04 +9.997996e-01 +6.825227e-04 +2.004259e-04 -6.825227e-04
1.332169e+07 +2.004015e-04 -6.643857e-04 +9.997996e-01 +6.643857e-04 +9.997996e-01 +6.643857e-04 +2.004015e-04 -6.643857e-04
1.364583e+07 +2.003484e-04 -6.231266e-04 +9.997997e-01 +6.231266e-04 +9.997997e-01 +6.231266e-04 +2.003484e-04 -6.231266e-04
1.384733e+07 +2.003179e-04 -5.981471e-04 +9.997997e-01 +5.981471e-04 +9.997997e-01 +5.981471e-04 +2.003179e-04 -5.981471e-04
1.412538e+07 +2.002787e-04 -5.644739e-04 +9.997997e-01 +5.644739e-04 +9.997997e-01 +5.644739e-04 +2.002787e-04 -5.644739e-04
1.439371e+07 +2.002439e-04 -5.328044e-04 +9.997998e-01 +5.328044e-04 +9.997998e-01 +5.328044e-04 +2.002439e-04 -5.328044e-04
1.462177e+07 +2.002166e-04 -5.064946e-04 +9.997998e-01 +5.064946e-04 +9.997998e-01 +5.064946e-04 +2.002166e-04 -5.064946e-04
1.496165e+07 +2.001793e-04 -4.682597e-04 +9.997998e-01 +4.682597e-04 +9.997998e-01 +4.682597e-04 +2.001793e-04 -4.682597e-04
1.513561e+07 +2.001618e-04 -4.491196e-04 +9.997998e-01 +4.491196e-04 +9.997998e-01 +4.491196e-04 +2.001618e-04 -4.491196e-04
1.555200e+07 +2.001236e-04 -4.044164e-04 +9.997999e-01 +4.044164e-04 +9.997999e-01 +4.044164e-04 +2.001236e-04 -4.044164e-04
1.566751e+07 +2.001139e-04 -3.922805e-04 +9.997999e-01 +3.922805e-04 +9.997999e-01 +3.922805e-04 +2.001139e-04 -3.922805e-04
1.616564e+07 +2.000764e-04 -3.411787e-04 +9.997999e-01 +3.411787e-04 +9.997999e-01 +3.411787e-04 +2.000764e-04 -3.411787e-04
1.621810e+07 +2.000729e-04 -3.359093e-04 +9.997999e-01 +3.359093e-04 +9.997999e-01 +3.359093e-04 +2.000729e-04 -3.359093e-04
1.678804e+07 +2.000384e-04 -2.799388e-04 +9.998000e-01 +2.799388e-04 +9.998000e-01 +2.799388e-04 +2.000384e-04 -2.799388e-04
1.680350e+07 +2.000376e-04 -2.784521e-04 +9.998000e-01 +2.784521e-04 +9.998000e-01 +2.784521e-04 +2.000376e-04 -2.784521e-04
1.737801e+07 +2.000103e-04 -2.243024e-04 +9.998000e-01 +2.243024e-04 +9.998000e-01 +2.243024e-04 +2.000103e-04 -2.243024e-04
1.746652e+07 +2.000067e-04 -2.161426e-04 +9.998000e-01 +2.161426e-04 +9.998000e-01 +2.161426e-04 +2.000067e-04 -2.161426e-04
1.798871e+07 +1.999886e-04 -1.689335e-04 +9.998000e-01 +1.689335e-04 +9.998000e-01 +1.689335e-04 +1.999886e-04 -1.689335e-04
1.815571e+07 +1.999838e-04 -1.541567e-04 +9.998000e-01 +1.541567e-04 +9.998000e-01 +1.541567e-04 +1.999838e-04 -1.541567e-04
1.862087e+07 +1.999730e-04 -1.137662e-04 +9.998000e-01 +1.137662e-04 +9.998000e-01 +1.137662e-04 +1.999730e-04 -1.137662e-04
1.887209e+07 +1.999685e-04 -9.240177e-05 +9.998000e-01 +9.240177e-05 +9.998000e-01 +9.240177e-05 +1.999685e-04 -9.240177e-05
1.927525e+07 +1.999635e-04 -5.873462e-05 +9.998000e-01 +5.873462e-05 +9.998000e-01 +5.873462e-05 +1.999635e-04 -5.873462e-05
1.961673e+07 +1.999610e-04 -3.078522e-05 +9.998000e-01 +3.078522e-05 +9.998000e-01 +3.078522e-05 +1.999610e-04 -3.078522e-05
1.995262e+07 +1.999600e-04 -3.773097e-06 +9.998000e-01 +3.773097e-06 +9.998000e-01 +3.773097e-06 +1.999600e-04 -3.773097e-06
2.039076e+07 +1.999610e-04 +3.078522e-05 +9.998000e-01 -3.078522e-05 +9.998000e-01 -3.078522e-05 +1.999610e-04 +3.078522e-05
2.065380e+07 +1.999626e-04 +5.118392e-05 +9.998000e-01 -5.118392e-05 +9.998000e-01 -5.118392e-05 +1.999626e-04 +5.118392e-05
2.119532e+07 +1.999685e-04 +9.240177e-05 +9.998000e-01 -9.240177e-05 +9.998000e-01 -9.240177e-05 +1.999685e-04 +9.240177e-05
2.137962e+07 +1.999713e-04 +1.062020e-04 +9.998000e-01 -1.062020e-04 +9.998000e-01 -1.062020e-04 +1.999713e-04 +1.062020e-04
2.203164e+07 +1.999838e-04 +1.541567e-04 +9.998000e-01 -1.541567e-04 +9.998000e-01 -1.541567e-04 +1.999838e-04 +1.541567e-04
2.213095e+07 +1.999860e-04 +1.613468e-04 +9.998000e-01 -1.613468e-04 +9.998000e-01 -1.613468e-04 +1.999860e-04 +1.613468e-04
2.290095e+07 +2.000067e-04 +2.161426e-04 +9.998000e-01 -2.161426e-04 +9.998000e-01 -2.161426e-04 +2.000067e-04 +2.161426e-04
2.290868e+07 +2.000070e-04 +2.166841e-04 +9.998000e-01 -2.166841e-04 +9.998000e-01 -2.166841e-04 +2.000070e-04 +2.166841e-04
2.371374e+07 +2.000342e-04 +2.722798e-04 +9.998000e-01 -2.722798e-04 +9.998000e-01 -2.722798e-04 +2.000342e-04 +2.722798e-04
2.380456e+07 +2.000376e-04 +2.784521e-04 +9.998000e-01 -2.784521e-04 +9.998000e-01 -2.784521e-04 +2.000376e-04 +2.784521e-04
2.454709e+07 +2.000677e-04 +3.282005e-04 +9.997999e-01 -3.282005e-04 +9.997999e-01 -3.282005e-04 +2.000677e-04 +3.282005e-04
2.474383e+07 +2.000764e-04 +3.411787e-04 +9.997999e-01 -3.411787e-04 +9.997999e-01 -3.411787e-04 +2.000764e-04 +3.411787e-04
2.540973e+07 +2.001079e-04 +3.845126e-04 +9.997999e-01 -3.845126e-04 +9.997999e-01 -3.845126e-04 +2.001079e-04 +3.845126e-04
2.572016e+07 +2.001236e-04 +4.044164e-04 +9.997999e-01 -4.044164e-04 +9.997999e-01 -4.044164e-04 +2.001236e-04 +4.044164e-04
2.630268e+07 +2.001548e-04 +4.412835e-04 +9.997998e-01 -4.412835e-04 +9.997998e-01 -4.412835e-04 +2.001548e-04 +4.412835e-04
2.673501e+07 +2.001793e-04 +4.682597e-04 +9.997998e-01 -4.682597e-04 +9.997998e-01 -4.682597e-04 +2.001793e-04 +4.682597e-04
2.722701e+07 +2.002086e-04 +4.985809e-04 +9.997998e-01 -4.985809e-04 +9.997998e-01 -4.985809e-04 +2.002086e-04 +4.985809e-04
2.778991e+07 +2.002439e-04 +5.328044e-04 +9.997998e-01 -5.328044e-04 +9.997998e-01 -5.328044e-04 +2.002439e-04 +5.328044e-04
2.818383e+07 +2.002697e-04 +5.564731e-04 +9.997997e-01 -5.564731e-04 +9.997997e-01 -5.564731e-04 +2.002697e-04 +5.564731e-04
2.888643e+07 +2.003179e-04 +5.981471e-04 +9.997997e-01 -5.981471e-04 +9.997997e-01 -5.981471e-04 +2.003179e-04 +5.981471e-04
2.917427e+07 +2.003383e-04 +6.150292e-04 +9.997997e-01 -6.150292e-04 +9.997997e-01 -6.150292e-04 +2.003383e-04 +6.150292e-04
3.002621e+07 +2.004015e-04 +6.643857e-04 +9.997996e-01 -6.643857e-04 +9.997996e-01 -6.643857e-04 +2.004015e-04 +6.643857e-04
3.019952e+07 +2.004148e-04 +6.743190e-04 +9.997996e-01 -6.743190e-04 +9.997996e-01 -6.743190e-04 +2.004148e-04 +6.743190e-04
3.121097e+07 +2.004954e-04 +7.316194e-04 +9.997995e-01 -7.316194e-04 +9.997995e-01 -7.316194e-04 +2.004954e-04 +7.316194e-04
3.126079e+07 +2.004995e-04 +7.344133e-04 +9.997995e-01 -7.344133e-04 +9.997995e-01 -7.344133e-04 +2.004995e-04 +7.344133e-04
3.235937e+07 +2.005928e-04 +7.953838e-04 +9.997994e-01 -7.953838e-04 +9.997994e-01 -7.953838e-04 +2.005928e-04 +7.953838e-04
3.244248e+07 +2.006001e-04 +7.999489e-04 +9.997994e-01 -7.999489e-04 +9.997994e-01 -7.999489e-04 +2.006001e-04 +7.999489e-04
3.349654e+07 +2.006951e-04 +8.573031e-04 +9.997993e-01 -8.573031e-04 +9.997993e-01 -8.573031e-04 +2.006951e-04 +8.573031e-04
3.372258e+07 +2.007161e-04 +8.694765e-04 +9.997993e-01 -8.694765e-04 +9.997993e-01 -8.694765e-04 +2.007161e-04 +8.694765e-04
3.467369e+07 +2.008070e-04 +9.202453e-04 +9.997992e-01 -9.202453e-04 +9.997992e-01 -9.202453e-04 +2.008070e-04 +9.202453e-04
3.505318e+07 +2.008444e-04 +9.403064e-04 +9.997992e-01 -9.403064e-04 +9.997992e-01 -9.403064e-04 +2.008444e-04 +9.403064e-04
3.589219e+07 +2.009290e-04 +9.842853e-04 +9.997991e-01 -9.842853e-04 +9.997991e-01 -9.842853e-04 +2.009290e-04 +9.842853e-04
3.643629e+07 +2.009855e-04 +1.012545e-03 +9.997990e-01 -1.012545e-03 +9.997990e-01 -1.012545e-03 +2.009855e-04 +1.012545e-03
3.715352e+07 +2.010617e-04 +1.049500e-03 +9.997989e-01 -1.049500e-03 +9.997989e-01 -1.049500e-03 +2.010617e-04 +1.049500e-03
3.787398e+07 +2.011403e-04 +1.086299e-03 +9.997989e-01 -1.086299e-03 +9.997989e-01 -1.086299e-03 +2.011403e-04 +1.086299e-03
3.845918e+07 +2.012056e-04 +1.115966e-03 +9.997988e-01 -1.115966e-03 +9.997988e-01 -1.115966e-03 +2.012056e-04 +1.115966e-03
3.936839e+07 +2.013098e-04 +1.161681e-03 +9.997987e-01 -1.161681e-03 +9.997987e-01 -1.161681e-03 +2.013098e-04 +1.161681e-03
3.981072e+07 +2.013616e-04 +1.183764e-03 +9.997986e-01 -1.183764e-03 +9.997986e-01 -1.183764e-03 +2.013616e-04 +1.183764e-03
4.092177e+07 +2.014949e-04 +1.238803e-03 +9.997985e-01 -1.238803e-03 +9.997985e-01 -1.238803e-03 +2.014949e-04 +1.238803e-03
4.120975e+07 +2.015303e-04 +1.252974e-03 +9.997985e-01 -1.252974e-03 +9.997985e-01 -1.252974e-03 +2.015303e-04 +1.252974e-03
4.253643e+07 +2.016969e-04 +1.317780e-03 +9.997983e-01 -1.317780e-03 +9.997983e-01 -1.317780e-03 +2.016969e-04 +1.317780e-03
4.265795e+07 +2.017125e-04 +1.323679e-03 +9.997983e-01 -1.323679e-03 +9.997983e-01 -1.323679e-03 +2.017125e-04 +1.323679e-03
4.415704e+07 +2.019091e-04 +1.395962e-03 +9.997981e-01 -1.395962e-03 +9.997981e-01 -1.395962e-03 +2.019091e-04 +1.395962e-03
4.421481e+07 +2.019169e-04 +1.398731e-03 +9.997981e-01 -1.398731e-03 +9.997981e-01 -1.398731e-03 +2.019169e-04 +1.398731e-03
4.570882e+07 +2.021211e-04 +1.469912e-03 +9.997979e-01 -1.469912e-03 +9.997979e-01 -1.469912e-03 +2.021211e-04 +1.469912e-03
4.595942e+07 +2.021561e-04 +1.481777e-03 +9.997978e-01 -1.481777e-03 +9.997978e-01 -1.481777e-03 +2.021561e-04 +1.481777e-03
4.731513e+07 +2.023494e-04 +1.545615e-03 +9.997977e-01 -1.545615e-03 +9.997977e-01 -1.545615e-03 +2.023494e-04 +1.545615e-03
4.777286e+07 +2.024161e-04 +1.567042e-03 +9.997976e-01 -1.567042e-03 +9.997976e-01 -1.567042e-03 +2.024161e-04 +1.567042e-03
4.897788e+07 +2.025952e-04 +1.623162e-03 +9.997974e-01 -1.623162e-03 +9.997974e-01 -1.623162e-03 +2.025952e-04 +1.623162e-03
4.965786e+07 +2.026984e-04 +1.654654e-03 +9.997973e-01 -1.654654e-03 +9.997973e-01 -1.654654e-03 +2.026984e-04 +1.654654e-03
5.069907e+07 +2.028596e-04 +1.702645e-03 +9.997971e-01 -1.702645e-03 +9.997971e-01 -1.702645e-03 +2.028596e-04 +1.702645e-03
5.161723e+07 +2.030048e-04 +1.744744e-03 +9.997970e-01 -1.744744e-03 +9.997970e-01 -1.744744e-03 +2.030048e-04 +1.744744e-03
5.248075e+07 +2.031439e-04 +1.784160e-03 +9.997969e-01 -1.784160e-03 +9.997969e-01 -1.784160e-03 +2.031439e-04 +1.784160e-03
5.365392e+07 +2.033369e-04 +1.837448e-03 +9.997967e-01 -1.837448e-03 +9.997967e-01 -1.837448e-03 +2.033369e-04 +1.837448e-03
5.432503e+07 +2.034494e-04 +1.867803e-03 +9.997966e-01 -1.867803e-03 +9.997966e-01 -1.867803e-03 +2.034494e-04 +1.867803e-03
5.577096e+07 +2.036969e-04 +1.932903e-03 +9.997963e-01 -1.932903e-03 +9.997963e-01 -1.932903e-03 +2.036969e-04 +1.932903e-03
5.623413e+07 +2.037776e-04 +1.953674e-03 +9.997962e-01 -1.953674e-03 +9.997962e-01 -1.953674e-03 +2.037776e-04 +1.953674e-03
5.797154e+07 +2.040868e-04 +2.031254e-03 +9.997959e-01 -2.031254e-03 +9.997959e-01 -2.031254e-03 +2.040868e-04 +2.031254e-03
5.821032e+07 +2.041301e-04 +2.041876e-03 +9.997959e-01 -2.041876e-03 +9.997959e-01 -2.041876e-03 +2.041301e-04 +2.041876e-03
6.025596e+07 +2.045086e-04 +2.132514e-03 +9.997955e-01 -2.132514e-03 +9.997955e-01 -2.132514e-03 +2.045086e-04 +2.132514e-03
6.025895e+07 +2.045091e-04 +2.132646e-03 +9.997955e-01 -2.132646e-03 +9.997955e-01 -2.132646e-03 +2.045091e-04 +2.132646e-03
6.237348e+07 +2.049147e-04 +2.225696e-03 +9.997951e-01 -2.225696e-03 +9.997951e-01 -2.225696e-03 +2.049147e-04 +2.225696e-03
6.263662e+07 +2.049662e-04 +2.237233e-03 +9.997950e-01 -2.237233e-03 +9.997950e-01 -2.237233e-03 +2.049662e-04 +2.237233e-03
6.456542e+07 +2.053506e-04 +2.321534e-03 +9.997946e-01 -2.321534e-03 +9.997946e-01 -2.321534e-03 +2.053506e-04 +2.321534e-03
6.510810e+07 +2.054610e-04 +2.345171e-03 +9.997945e-01 -2.345171e-03 +9.997945e-01 -2.345171e-03 +2.054610e-04 +2.345171e-03
6.683439e+07 +2.058183e-04 +2.420140e-03 +9.997942e-01 -2.420140e-03 +9.997942e-01 -2.420140e-03 +2.058183e-04 +2.420140e-03
6.767710e+07 +2.059962e-04 +2.456621e-03 +9.997940e-01 -2.456621e-03 +9.997940e-01 -2.456621e-03 +2.059962e-04 +2.456621e-03
6.918310e+07 +2.063200e-04 +2.521634e-03 +9.997937e-01 -2.521634e-03 +9.997937e-01 -2.521634e-03 +2.063200e-04 +2.521634e-03
7.034747e+07 +2.065753e-04 +2.571750e-03 +9.997934e-01 -2.571750e-03 +9.997934e-01 -2.571750e-03 +2.065753e-04 +2.571750e-03
7.161434e+07 +2.068580e-04 +2.626136e-03 +9.997931e-01 -2.626136e-03 +9.997931e-01 -2.626136e-03 +2.068580e-04 +2.626136e-03
7.312320e+07 +2.072015e-04 +2.690731e-03 +9.997928e-01 -2.690731e-03 +9.997928e-01 -2.690731e-03 +2.072015e-04 +2.690731e-03
7.413102e+07 +2.074351e-04 +2.733772e-03 +9.997926e-01 -2.733772e-03 +9.997926e-01 -2.733772e-03 +2.074351e-04 +2.733772e-03
7.600846e+07 +2.078788e-04 +2.813741e-03 +9.997921e-01 -2.813741e-03 +9.997921e-01 -2.813741e-03 +2.078788e-04 +2.813741e-03
7.673615e+07 +2.080538e-04 +2.844668e-03 +9.997919e-01 -2.844668e-03 +9.997919e-01 -2.844668e-03 +2.080538e-04 +2.844668e-03
7.900756e+07 +2.086111e-04 +2.940966e-03 +9.997914e-01 -2.940966e-03 +9.997914e-01 -2.940966e-03 +2.086111e-04 +2.940966e-03
7.943282e+07 +2.087173e-04 +2.958958e-03 +9.997913e-01 -2.958958e-03 +9.997913e-01 -2.958958e-03 +2.087173e-04 +2.958958e-03
8.212500e+07 +2.094028e-04 +3.072596e-03 +9.997906e-01 -3.072596e-03 +9.997906e-01 -3.072596e-03 +2.094028e-04 +3.072596e-03
8.222426e+07 +2.094286e-04 +3.076778e-03 +9.997906e-01 -3.076778e-03 +9.997906e-01 -3.076778e-03 +2.094286e-04 +3.076778e-03
8.511380e+07 +2.101911e-04 +3.198268e-03 +9.997898e-01 -3.198268e-03 +9.997898e-01 -3.198268e-03 +2.101911e-04 +3.198268e-03
8.536544e+07 +2.102587e-04 +3.208827e-03 +9.997897e-01 -3.208827e-03 +9.997897e-01 -3.208827e-03 +2.102587e-04 +3.208827e-03
8.810489e+07 +2.110085e-04 +3.323573e-03 +9.997890e-01 -3.323573e-03 +9.997890e-01 -3.323573e-03 +2.110085e-04 +3.323573e-03
8.873375e+07 +2.111840e-04 +3.349864e-03 +9.997888e-01 -3.349864e-03 +9.997888e-01 -3.349864e-03 +2.111840e-04 +3.349864e-03
9.120108e+07 +2.118847e-04 +3.452843e-03 +9.997881e-01 -3.452843e-03 +9.997881e-01 -3.452843e-03 +2.118847e-04 +3.452843e-03
9.223496e+07 +2.121840e-04 +3.495917e-03 +9.997878e-01 -3.495917e-03 +9.997878e-01 -3.495917e-03 +2.121840e-04 +3.495917e-03
9.440609e+07 +2.128238e-04 +3.586233e-03 +9.997872e-01 -3.586233e-03 +9.997872e-01 -3.586233e-03 +2.128238e-04 +3.586233e-03
9.587431e+07 +2.132650e-04 +3.647206e-03 +9.997867e-01 -3.647206e-03 +9.997867e-01 -3.647206e-03 +2.132650e-04 +3.647206e-03
9.772372e+07 +2.138304e-04 +3.723900e-03 +9.997862e-01 -3.723900e-03 +9.997862e-01 -3.723900e-03 +2.138304e-04 +3.723900e-03
9.965727e+07 +2.144332e-04 +3.803958e-03 +9.997856e-01 -3.803958e-03 +9.997856e-01 -3.803958e-03 +2.144332e-04 +3.803958e-03
1.011579e+08 +2.149092e-04 +3.866009e-03 +9.997851e-01 -3.866009e-03 +9.997851e-01 -3.866009e-03 +2.149092e-04 +3.866009e-03
1.035895e+08 +2.156958e-04 +3.966406e-03 +9.997843e-01 -3.966406e-03 +9.997843e-01 -3.966406e-03 +2.156958e-04 +3.966406e-03
1.047129e+08 +2.160655e-04 +4.012730e-03 +9.997839e-01 -4.012730e-03 +9.997839e-01 -4.012730e-03 +2.160655e-04 +4.012730e-03
1.076769e+08 +2.170602e-04 +4.134794e-03 +9.997829e-01 -4.134794e-03 +9.997829e-01 -4.134794e-03 +2.170602e-04 +4.134794e-03
1.083927e+08 +2.173047e-04 +4.164238e-03 +9.997827e-01 -4.164238e-03 +9.997827e-01 -4.164238e-03 +2.173047e-04 +4.164238e-03
1.119255e+08 +2.185348e-04 +4.309374e-03 +9.997815e-01 -4.309374e-03 +9.997815e-01 -4.309374e-03 +2.185348e-04 +4.309374e-03
1.122018e+08 +2.186327e-04 +4.320713e-03 +9.997814e-01 -4.320713e-03 +9.997814e-01 -4.320713e-03 +2.186327e-04 +4.320713e-03
1.161449e+08 +2.200558e-04 +4.482343e-03 +9.997799e-01 -4.482343e-03 +9.997799e-01 -4.482343e-03 +2.200558e-04 +4.482343e-03
1.163418e+08 +2.201282e-04 +4.490408e-03 +9.997799e-01 -4.490408e-03 +9.997799e-01 -4.490408e-03 +2.201282e-04 +4.490408e-03
1.202264e+08 +2.215810e-04 +4.649318e-03 +9.997784e-01 -4.649318e-03 +9.997784e-01 -4.649318e-03 +2.215810e-04 +4.649318e-03
1.209324e+08 +2.218501e-04 +4.678166e-03 +9.997781e-01 -4.678166e-03 +9.997781e-01 -4.678166e-03 +2.218501e-04 +4.678166e-03
1.244515e+08 +2.232153e-04 +4.821840e-03 +9.997768e-01 -4.821840e-03 +9.997768e-01 -4.821840e-03 +2.232153e-04 +4.821840e-03
1.257041e+08 +2.237108e-04 +4.872930e-03 +9.997763e-01 -4.872930e-03 +9.997763e-01 -4.872930e-03 +2.237108e-04 +4.872930e-03
1.288250e+08 +2.249668e-04 +5.000113e-03 +9.997750e-01 -5.000113e-03 +9.997750e-01 -5.000113e-03 +2.249668e-04 +5.000113e-03
1.306640e+08 +2.257214e-04 +5.074991e-03 +9.997743e-01 -5.074991e-03 +9.997743e-01 -5.074991e-03 +2.257214e-04 +5.074991e-03
1.333521e+08 +2.268436e-04 +5.184350e-03 +9.997732e-01 -5.184350e-03 +9.997732e-01 -5.184350e-03 +2.268436e-04 +5.184350e-03
1.358197e+08 +2.278939e-04 +5.284651e-03 +9.997721e-01 -5.284651e-03 +9.997721e-01 -5.284651e-03 +2.278939e-04 +5.284651e-03
1.380384e+08 +2.288548e-04 +5.374771e-03 +9.997711e-01 -5.374771e-03 +9.997711e-01 -5.374771e-03 +2.288548e-04 +5.374771e-03
1.411788e+08 +2.302415e-04 +5.502225e-03 +9.997698e-01 -5.502225e-03 +9.997698e-01 -5.502225e-03 +2.302415e-04 +5.502225e-03
1.428894e+08 +2.310099e-04 +5.571603e-03 +9.997690e-01 -5.571603e-03 +9.997690e-01 -5.571603e-03 +2.310099e-04 +5.571603e-03
1.467494e+08 +2.327781e-04 +5.728038e-03 +9.997672e-01 -5.728038e-03 +9.997672e-01 -5.728038e-03 +2.327781e-04 +5.728038e-03
1.479108e+08 +2.333193e-04 +5.775080e-03 +9.997667e-01 -5.775080e-03 +9.997667e-01 -5.775080e-03 +2.333193e-04 +5.775080e-03
1.525397e+08 +2.355189e-04 +5.962428e-03 +9.997645e-01 -5.962428e-03 +9.997645e-01 -5.962428e-03 +2.355189e-04 +5.962428e-03
1.531087e+08 +2.357940e-04 +5.985445e-03 +9.997642e-01 -5.985445e-03 +9.997642e-01 -5.985445e-03 +2.357940e-04 +5.985445e-03
1.584893e+08 +2.384458e-04 +6.202949e-03 +9.997616e-01 -6.202949e-03 +9.997616e-01 -6.202949e-03 +2.384458e-04 +6.202949e-03
1.585585e+08 +2.384805e-04 +6.205746e-03 +9.997615e-01 -6.205746e-03 +9.997615e-01 -6.205746e-03 +2.384805e-04 +6.205746e-03
1.640590e+08 +2.412873e-04 +6.427851e-03 +9.997587e-01 -6.427851e-03 +9.997587e-01 -6.427851e-03 +2.412873e-04 +6.427851e-03
1.648149e+08 +2.416805e-04 +6.458356e-03 +9.997583e-01 -6.458356e-03 +9.997583e-01 -6.458356e-03 +2.416805e-04 +6.458356e-03
1.698244e+08 +2.443320e-04 +6.660419e-03 +9.997557e-01 -6.660419e-03 +9.997557e-01 -6.660419e-03 +2.443320e-04 +6.660419e-03
1.713180e+08 +2.451380e-04 +6.720636e-03 +9.997549e-01 -6.720636e-03 +9.997549e-01 -6.720636e-03 +2.451380e-04 +6.720636e-03
1.757924e+08 +2.475946e-04 +6.900930e-03 +9.997524e-01 -6.900930e-03 +9.997524e-01 -6.900930e-03 +2.475946e-04 +6.900930e-03
1.780778e+08 +2.488739e-04 +6.992978e-03 +9.997511e-01 -6.992978e-03 +9.997511e-01 -6.992978e-03 +2.488739e-04 +6.992978e-03
1.819701e+08 +2.510906e-04 +7.149672e-03 +9.997489e-01 -7.149672e-03 +9.997489e-01 -7.149672e-03 +2.510906e-04 +7.149672e-03
1.851043e+08 +2.529105e-04 +7.275789e-03 +9.997471e-01 -7.275789e-03 +9.997471e-01 -7.275789e-03 +2.529105e-04 +7.275789e-03
1.883649e+08 +2.548367e-04 +7.406939e-03 +9.997452e-01 -7.406939e-03 +9.997452e-01 -7.406939e-03 +2.548367e-04 +7.406939e-03
1.924081e+08 +2.572720e-04 +7.569494e-03 +9.997427e-01 -7.569494e-03 +9.997427e-01 -7.569494e-03 +2.572720e-04 +7.569494e-03
1.949845e+08 +2.588508e-04 +7.673039e-03 +9.997411e-01 -7.673039e-03 +9.997411e-01 -7.673039e-03 +2.588508e-04 +7.673039e-03
2.000000e+08 +2.619845e-04 +7.874531e-03 +9.997380e-01 -7.874531e-03 +9.997380e-01 -7.874531e-03 +2.619845e-04 +7.874531e-03
2.018366e+08 +2.631519e-04 +7.948289e-03 +9.997368e-01 -7.948289e-03 +9.997368e-01 -7.948289e-03 +2.631519e-04 +7.948289e-03
2.089296e+08 +2.677607e-04 +8.233017e-03 +9.997322e-01 -8.233017e-03 +9.997322e-01 -8.233017e-03 +2.677607e-04 +8.233017e-03
2.162719e+08 +2.726991e-04 +8.527561e-03 +9.997273e-01 -8.527561e-03 +9.997273e-01 -8.527561e-03 +2.726991e-04 +8.527561e-03
2.238721e+08 +2.779908e-04 +8.832274e-03 +9.997220e-01 -8.832274e-03 +9.997220e-01 -8.832274e-03 +2.779908e-04 +8.832274e-03
2.317395e+08 +2.836608e-04 +9.147516e-03 +9.997163e-01 -9.147516e-03 +9.997163e-01 -9.147516e-03 +2.836608e-04 +9.147516e-03
2.398833e+08 +2.897364e-04 +9.473665e-03 +9.997103e-01 -9.473665e-03 +9.997103e-01 -9.473665e-03 +2.897364e-04 +9.473665e-03
2.483133e+08 +2.962464e-04 +9.811108e-03 +9.997038e-01 -9.811108e-03 +9.997038e-01 -9.811108e-03 +2.962464e-04 +9.811108e-03
2.570396e+08 +3.032219e-04 +1.016025e-02 +9.996968e-01 -1.016025e-02 +9.996968e-01 -1.016025e-02 +3.032219e-04 +1.016025e-02
2.660725e+08 +3.106963e-04 +1.052150e-02 +9.996893e-01 -1.052150e-02 +9.996893e-01 -1.052150e-02 +3.106963e-04 +1.052150e-02
2.754229e+08 +3.187052e-04 +1.089529e-02 +9.996813e-01 -1.089529e-02 +9.996813e-01 -1.089529e-02 +3.187052e-04 +1.089529e-02
2.851018e+08 +3.272867e-04 +1.128207e-02 +9.996727e-01 -1.128207e-02 +9.996727e-01 -1.128207e-02 +3.272867e-04 +1.128207e-02
2.951209e+08 +3.364819e-04 +1.168229e-02 +9.996635e-01 -1.168229e-02 +9.996635e-01 -1.168229e-02 +3.364819e-04 +1.168229e-02
3.054921e+08 +3.463345e-04 +1.209644e-02 +9.996537e-01 -1.209644e-02 +9.996537e-01 -1.209644e-02 +3.463345e-04 +1.209644e-02
3.162278e+08 +3.568915e-04 +1.252500e-02 +9.996431e-01 -1.252500e-02 +9.996431e-01 -1.252500e-02 +3.568915e-04 +1.252500e-02
3.273407e+08 +3.682034e-04 +1.296848e-02 +9.996318e-01 -1.296848e-02 +9.996318e-01 -1.296848e-02 +3.682034e-04 +1.296848e-02
3.388442e+08 +3.803241e-04 +1.342742e-02 +9.996197e-01 -1.342742e-02 +9.996197e-01 -1.342742e-02 +3.803241e-04 +1.342742e-02
3.507519e+08 +3.933113e-04 +1.390235e-02 +9.996067e-01 -1.390235e-02 +9.996067e-01 -1.390235e-02 +3.933113e-04 +1.390235e-02
3.630781e+08 +4.072270e-04 +1.439384e-02 +9.995928e-01 -1.439384e-02 +9.995928e-01 -1.439384e-02 +4.072270e-04 +1.439384e-02
3.758374e+08 +4.221375e-04 +1.490247e-02 +9.995779e-01 -1.490247e-02 +9.995779e-01 -1.490247e-02 +4.221375e-04 +1.490247e-02
3.890451e+08 +4.381139e-04 +1.542886e-02 +9.995619e-01 -1.542886e-02 +9.995619e-01 -1.542886e-02 +4.381139e-04 +1.542886e-02
4.027170e+08 +4.552324e-04 +1.597361e-02 +9.995448e-01 -1.597361e-02 +9.995448e-01 -1.597361e-02 +4.552324e-04 +1.597361e-02
4.168694e+08 +4.735746e-04 +1.653738e-02 +9.995264e-01 -1.653738e-02 +9.995264e-01 -1.653738e-02 +4.735746e-04 +1.653738e-02
4.315191e+08 +4.932279e-04 +1.712084e-02 +9.995068e-01 -1.712084e-02 +9.995068e-01 -1.712084e-02 +4.932279e-04 +1.712084e-02
4.466836e+08 +5.142859e-04 +1.772468e-02 +9.994857e-01 -1.772468e-02 +9.994857e-01 -1.772468e-02 +5.142859e-04 +1.772468e-02
4.623810e+08 +5.368490e-04 +1.834961e-02 +9.994632e-01 -1.834961e-02 +9.994632e-01 -1.834961e-02 +5.368490e-04 +1.834961e-02
4.786301e+08 +5.610246e-04 +1.899637e-02 +9.994390e-01 -1.899637e-02 +9.994390e-01 -1.899637e-02 +5.610246e-04 +1.899637e-02
4.954502e+08 +5.869280e-04 +1.966573e-02 +9.994131e-01 -1.966573e-02 +9.994131e-01 -1.966573e-02 +5.869280e-04 +1.966573e-02
5.128614e+08 +6.146825e-04 +2.035848e-02 +9.993853e-01 -2.035848e-02 +9.993853e-01 -2.035848e-02 +6.146825e-04 +2.035848e-02
5.308844e+08 +6.444203e-04 +2.107543e-02 +9.993556e-01 -2.107543e-02 +9.993556e-01 -2.107543e-02 +6.444203e-04 +2.107543e-02
5.495409e+08 +6.762830e-04 +2.181744e-02 +9.993237e-01 -2.181744e-02 +9.993237e-01 -2.181744e-02 +6.762830e-04 +2.181744e-02
5.688529e+08 +7.104222e-04 +2.258538e-02 +9.992896e-01 -2.258538e-02 +9.992896e-01 -2.258538e-02 +7.104222e-04 +2.258538e-02
5.888437e+08 +7.470005e-04 +2.338016e-02 +9.992530e-01 -2.338016e-02 +9.992530e-01 -2.338016e-02 +7.470005e-04 +2.338016e-02
6.095369e+08 +7.861918e-04 +2.420270e-02 +9.992138e-01 -2.420270e-02 +9.992138e-01 -2.420270e-02 +7.861918e-04 +2.420270e-02
6.309573e+08 +8.281827e-04 +2.505399e-02 +9.991718e-01 -2.505399e-02 +9.991718e-01 -2.505399e-02 +8.281827e-04 +2.505399e-02
6.531306e+08 +8.731728e-04 +2.593501e-02 +9.991268e-01 -2.593501e-02 +9.991268e-01 -2.593501e-02 +8.731728e-04 +2.593501e-02
6.760830e+08 +9.213761e-04 +2.684681e-02 +9.990786e-01 -2.684681e-02 +9.990786e-01 -2.684681e-02 +9.213761e-04 +2.684681e-02
6.998420e+08 +9.730217e-04 +2.779046e-02 +9.990270e-01 -2.779046e-02 +9.990270e-01 -2.779046e-02 +9.730217e-04 +2.779046e-02
7.244360e+08 +1.028355e-03 +2.876705e-02 +9.989716e-01 -2.876705e-02 +9.989716e-01 -2.876705e-02 +1.028355e-03 +2.876705e-02
7.498942e+08 +1.087639e-03 +2.977773e-02 +9.989124e-01 -2.977773e-02 +9.989124e-01 -2.977773e-02 +1.087639e-03 +2.977773e-02
7.762471e+08 +1.151155e-03 +3.082369e-02 +9.988488e-01 -3.082369e-02 +9.988488e-01 -3.082369e-02 +1.151155e-03 +3.082369e-02
8.035261e+08 +1.219205e-03 +3.190614e-02 +9.987808e-01 -3.190614e-02 +9.987808e-01 -3.190614e-02 +1.219205e-03 +3.190614e-02
8.317638e+08 +1.292111e-03 +3.302635e-02 +9.987079e-01 -3.302635e-02 +9.987079e-01 -3.302635e-02 +1.292111e-03 +3.302635e-02
8.609938e+08 +1.370220e-03 +3.418562e-02 +9.986298e-01 -3.418562e-02 +9.986298e-01 -3.418562e-02 +1.370220e-03 +3.418562e-02
8.912509e+08 +1.453901e-03 +3.538528e-02 +9.985461e-01 -3.538528e-02 +9.985461e-01 -3.538528e-02 +1.453901e-03 +3.538528e-02
9.225714e+08 +1.543552e-03 +3.662674e-02 +9.984564e-01 -3.662674e-02 +9.984564e-01 -3.662674e-02 +1.543552e-03 +3.662674e-02
9.549926e+08 +1.639597e-03 +3.791143e-02 +9.983604e-01 -3.791143e-02 +9.983604e-01 -3.791143e-02 +1.639597e-03 +3.791143e-02
9.885531e+08 +1.742490e-03 +3.924082e-02 +9.982575e-01 -3.924082e-02 +9.982575e-01 -3.924082e-02 +1.742490e-03 +3.924082e-02
1.023293e+09 +1.852718e-03 +4.061645e-02 +9.981473e-01 -4.061645e-02 +9.981473e-01 -4.061645e-02 +1.852718e-03 +4.061645e-02
1.059254e+09 +1.970803e-03 +4.203990e-02 +9.980292e-01 -4.203990e-02 +9.980292e-01 -4.203990e-02 +1.970803e-03 +4.203990e-02
1.096478e+09 +2.097303e-03 +4.351279e-02 +9.979027e-01 -4.351279e-02 +9.979027e-01 -4.351279e-02 +2.097303e-03 +4.351279e-02
1.135011e+09 +2.232813e-03 +4.503681e-02 +9.977672e-01 -4.503681e-02 +9.977672e-01 -4.503681e-02 +2.232813e-03 +4.503681e-02
1.174898e+09 +2.377975e-03 +4.661369e-02 +9.976220e-01 -4.661369e-02 +9.976220e-01 -4.661369e-02 +2.377975e-03 +4.661369e-02
1.216186e+09 +2.533472e-03 +4.824521e-02 +9.974665e-01 -4.824521e-02 +9.974665e-01 -4.824521e-02 +2.533472e-03 +4.824521e-02
1.258925e+09 +2.700036e-03 +4.993321e-02 +9.973000e-01 -4.993321e-02 +9.973000e-01 -4.993321e-02 +2.700036e-03 +4.993321e-02
1.303167e+09 +2.878450e-03 +5.167959e-02 +9.971215e-01 -5.167959e-02 +9.971215e-01 -5.167959e-02 +2.878450e-03 +5.167959e-02
1.348963e+09 +3.069554e-03 +5.348631e-02 +9.969304e-01 -5.348631e-02 +9.969304e-01 -5.348631e-02 +3.069554e-03 +5.348631e-02
1.396368e+09 +3.274245e-03 +5.535538e-02 +9.967258e-01 -5.535538e-02 +9.967258e-01 -5.535538e-02 +3.274245e-03 +5.535538e-02
1.445440e+09 +3.493481e-03 +5.728887e-02 +9.965065e-01 -5.728887e-02 +9.965065e-01 -5.728887e-02 +3.493481e-03 +5.728887e-02
1.496236e+09 +3.728290e-03 +5.928891e-02 +9.962717e-01 -5.928891e-02 +9.962717e-01 -5.928891e-02 +3.728290e-03 +5.928891e-02
1.548817e+09 +3.979769e-03 +6.135769e-02 +9.960202e-01 -6.135769e-02 +9.960202e-01 -6.135769e-02 +3.979769e-03 +6.135769e-02
1.603245e+09 +4.249094e-03 +6.349747e-02 +9.957509e-01 -6.349747e-02 +9.957509e-01 -6.349747e-02 +4.249094e-03 +6.349747e-02
1.659587e+09 +4.537518e-03 +6.571055e-02 +9.954625e-01 -6.571055e-02 +9.954625e-01 -6.571055e-02 +4.537518e-03 +6.571055e-02
1.717908e+09 +4.846385e-03 +6.799932e-02 +9.951536e-01 -6.799932e-02 +9.951536e-01 -6.799932e-02 +4.846385e-03 +6.799932e-02
1.778279e+09 +5.177130e-03 +7.036620e-02 +9.948229e-01 -7.036620e-02 +9.948229e-01 -7.036620e-02 +5.177130e-03 +7.036620e-02
1.840772e+09 +5.531285e-03 +7.281371e-02 +9.944687e-01 -7.281371e-02 +9.944687e-01 -7.281371e-02 +5.531285e-03 +7.281371e-02
1.905461e+09 +5.910489e-03 +7.534439e-02 +9.940895e-01 -7.534439e-02 +9.940895e-01 -7.534439e-02 +5.910489e-03 +7.534439e-02
1.972423e+09 +6.316493e-03 +7.796088e-02 +9.936835e-01 -7.796088e-02 +9.936835e-01 -7.796088e-02 +6.316493e-03 +7.796088e-02
2.041738e+09 +6.751167e-03 +8.066584e-02 +9.932488e-01 -8.066584e-02 +9.932488e-01 -8.066584e-02 +6.751167e-03 +8.066584e-02
2.113489e+09 +7.216505e-03 +8.346203e-02 +9.927835e-01 -8.346203e-02 +9.927835e-01 -8.346203e-02 +7.216505e-03 +8.346203e-02
2.187762e+09 +7.714641e-03 +8.635223e-02 +9.922854e-01 -8.635223e-02 +9.922854e-01 -8.635223e-02 +7.714641e-03 +8.635223e-02
2.264644e+09 +8.247849e-03 +8.933930e-02 +9.917522e-01 -8.933930e-02 +9.917522e-01 -8.933930e-02 +8.247849e-03 +8.933930e-02
2.344229e+09 +8.818556e-03 +9.242615e-02 +9.911814e-01 -9.242615e-02 +9.911814e-01 -9.242615e-02 +8.818556e-03 +9.242615e-02
2.426610e+09 +9.429351e-03 +9.561571e-02 +9.905706e-01 -9.561571e-02 +9.905706e-01 -9.561571e-02 +9.429351e-03 +9.561571e-02
2.511886e+09 +1.008299e-02 +9.891099e-02 +9.899170e-01 -9.891099e-02 +9.899170e-01 -9.891099e-02 +1.008299e-02 +9.891099e-02
2.600160e+09 +1.078243e-02 +1.023150e-01 +9.892176e-01 -1.023150e-01 +9.892176e-01 -1.023150e-01 +1.078243e-02 +1.023150e-01
2.691535e+09 +1.153079e-02 +1.058309e-01 +9.884692e-01 -1.058309e-01 +9.884692e-01 -1.058309e-01 +1.153079e-02 +1.058309e-01
2.786121e+09 +1.233142e-02 +1.094617e-01 +9.876686e-01 -1.094617e-01 +9.876686e-01 -1.094617e-01 +1.233142e-02 +1.094617e-01
2.884032e+09 +1.318787e-02 +1.132105e-01 +9.868121e-01 -1.132105e-01 +9.868121e-01 -1.132105e-01 +1.318787e-02 +1.132105e-01
2.985383e+09 +1.410393e-02 +1.170806e-01 +9.858961e-01 -1.170806e-01 +9.858961e-01 -1.170806e-01 +1.410393e-02 +1.170806e-01
3.090295e+09 +1.508361e-02 +1.210750e-01 +9.849164e-01 -1.210750e-01 +9.849164e-01 -1.210750e-01 +1.508361e-02 +1.210750e-01
3.198895e+09 +1.613121e-02 +1.251969e-01 +9.838688e-01 -1.251969e-01 +9.838688e-01 -1.251969e-01 +1.613121e-02 +1.251969e-01
3.311311e+09 +1.725126e-02 +1.294494e-01 +9.827487e-01 -1.294494e-01 +9.827487e-01 -1.294494e-01 +1.725126e-02 +1.294494e-01
3.427678e+09 +1.844858e-02 +1.338356e-01 +9.815514e-01 -1.338356e-01 +9.815514e-01 -1.338356e-01 +1.844858e-02 +1.338356e-01
3.548134e+09 +1.972831e-02 +1.383585e-01 +9.802717e-01 -1.383585e-01 +9.802717e-01 -1.383585e-01 +1.972831e-02 +1.383585e-01
3.672823e+09 +2.109586e-02 +1.430213e-01 +9.789041e-01 -1.430213e-01 +9.789041e-01 -1.430213e-01 +2.109586e-02 +1.430213e-01
3.801894e+09 +2.255698e-02 +1.478266e-01 +9.774430e-01 -1.478266e-01 +9.774430e-01 -1.478266e-01 +2.255698e-02 +1.478266e-01
3.935501e+09 +2.411778e-02 +1.527775e-01 +9.758822e-01 -1.527775e-01 +9.758822e-01 -1.527775e-01 +2.411778e-02 +1.527775e-01
4.073803e+09 +2.578468e-02 +1.578766e-01 +9.742153e-01 -1.578766e-01 +9.742153e-01 -1.578766e-01 +2.578468e-02 +1.578766e-01
4.216965e+09 +2.756448e-02 +1.631264e-01 +9.724355e-01 -1.631264e-01 +9.724355e-01 -1.631264e-01 +2.756448e-02 +1.631264e-01
4.365158e+09 +2.946437e-02 +1.685294e-01 +9.705356e-01 -1.685294e-01 +9.705356e-01 -1.685294e-01 +2.946437e-02 +1.685294e-01
4.518559e+09 +3.149192e-02 +1.740877e-01 +9.685081e-01 -1.740877e-01 +9.685081e-01 -1.740877e-01 +3.149192e-02 +1.740877e-01
4.677351e+09 +3.365510e-02 +1.798032e-01 +9.663449e-01 -1.798032e-01 +9.663449e-01 -1.798032e-01 +3.365510e-02 +1.798032e-01
4.841724e+09 +3.596229e-02 +1.856778e-01 +9.640377e-01 -1.856778e-01 +9.640377e-01 -1.856778e-01 +3.596229e-02 +1.856778e-01
5.011872e+09 +3.842229e-02 +1.917126e-01 +9.615777e-01 -1.917126e-01 +9.615777e-01 -1.917126e-01 +3.842229e-02 +1.917126e-01
5.188000e+09 +4.104433e-02 +1.979089e-01 +9.589557e-01 -1.979089e-01 +9.589557e-01 -1.979089e-01 +4.104433e-02 +1.979089e-01
5.370318e+09 +4.383807e-02 +2.042672e-01 +9.561619e-01 -2.042672e-01 +9.561619e-01 -2.042672e-01 +4.383807e-02 +2.042672e-01
5.559043e+09 +4.681362e-02 +2.107878e-01 +9.531864e-01 -2.107878e-01 +9.531864e-01 -2.107878e-01 +4.681362e-02 +2.107878e-01
5.754399e+09 +4.998148e-02 +2.174704e-01 +9.500185e-01 -2.174704e-01 +9.500185e-01 -2.174704e-01 +4.998148e-02 +2.174704e-01
5.956621e+09 +5.335262e-02 +2.243141e-01 +9.466474e-01 -2.243141e-01 +9.466474e-01 -2.243141e-01 +5.335262e-02 +2.243141e-01
6.165950e+09 +5.693841e-02 +2.313177e-01 +9.430616e-01 -2.313177e-01 +9.430616e-01 -2.313177e-01 +5.693841e-02 +2.313177e-01
6.382635e+09 +6.075063e-02 +2.384789e-01 +9.392494e-01 -2.384789e-01 +9.392494e-01 -2.384789e-01 +6.075063e-02 +2.384789e-01
6.606934e+09 +6.480144e-02 +2.457951e-01 +9.351986e-01 -2.457951e-01 +9.351986e-01 -2.457951e-01 +6.480144e-02 +2.457951e-01
6.839116e+09 +6.910335e-02 +2.532626e-01 +9.308966e-01 -2.532626e-01 +9.308966e-01 -2.532626e-01 +6.910335e-02 +2.532626e-01
7.079458e+09 +7.366923e-02 +2.608771e-01 +9.263308e-01 -2.608771e-01 +9.263308e-01 -2.608771e-01 +7.366923e-02 +2.608771e-01
7.328245e+09 +7.851221e-02 +2.686332e-01 +9.214878e-01 -2.686332e-01 +9.214878e-01 -2.686332e-01 +7.851221e-02 +2.686332e-01
7.585776e+09 +8.364566e-02 +2.765246e-01 +9.163543e-01 -2.765246e-01 +9.163543e-01 -2.765246e-01 +8.364566e-02 +2.765246e-01
7.852356e+09 +8.908316e-02 +2.845439e-01 +9.109168e-01 -2.845439e-01 +9.109168e-01 -2.845439e-01 +8.908316e-02 +2.845439e-01
8.128305e+09 +9.483837e-02 +2.926825e-01 +9.051616e-01 -2.926825e-01 +9.051616e-01 -2.926825e-01 +9.483837e-02 +2.926825e-01
8.413951e+09 +1.009250e-01 +3.009309e-01 +8.990750e-01 -3.009309e-01 +8.990750e-01 -3.009309e-01 +1.009250e-01 +3.009309e-01
8.709636e+09 +1.073568e-01 +3.092779e-01 +8.926432e-01 -3.092779e-01 +8.926432e-01 -3.092779e-01 +1.073568e-01 +3.092779e-01
9.015711e+09 +1.141472e-01 +3.177113e-01 +8.858528e-01 -3.177113e-01 +8.858528e-01 -3.177113e-01 +1.141472e-01 +3.177113e-01
9.332543e+09 +1.213095e-01 +3.262175e-01 +8.786905e-01 -3.262175e-01 +8.786905e-01 -3.262175e-01 +1.213095e-01 +3.262175e-01
9.660509e+09 +1.288567e-01 +3.347812e-01 +8.711433e-01 -3.347812e-01 +8.711433e-01 -3.347812e-01 +1.288567e-01 +3.347812e-01
1.000000e+10 +1.368010e-01 +3.433859e-01 +8.631990e-01 -3.433859e-01 +8.631990e-01 -3.433859e-01 +1.368010e-01 +3.433859e-01
