! Touchstone 2-port S-parameters  (series-through model)
! Part: LQW18AN10NJ00_10nH
! Generated: 2026-08-04 18:16 UTC  by s2p tool
! Reference impedance: 50.0 Ohm
! Cp estimated from SRF: 0.195 pF (SRF=3600.0 MHz) [PHYSICS ESTIMATE]
! Rp (core loss) from Q=38 @ 500.0 MHz: 1.2 kOhm [DATASHEET FIT]
! ESTIMATED / behavioral model - NOT manufacturer-measured data.
# Hz S RI R 50
! freq        ReS11      ImS11      ReS21      ImS21      ReS12      ImS12      ReS22      ImS22
1.000000e+04 +1.796495e-03 +6.258739e-06 +9.982035e-01 -6.258739e-06 +9.982035e-01 -6.258739e-06 +1.796495e-03 +6.258739e-06
1.035142e+04 +1.796495e-03 +6.478684e-06 +9.982035e-01 -6.478684e-06 +9.982035e-01 -6.478684e-06 +1.796495e-03 +6.478684e-06
1.071519e+04 +1.796495e-03 +6.706359e-06 +9.982035e-01 -6.706359e-06 +9.982035e-01 -6.706359e-06 +1.796495e-03 +6.706359e-06
1.109175e+04 +1.796495e-03 +6.942035e-06 +9.982035e-01 -6.942035e-06 +9.982035e-01 -6.942035e-06 +1.796495e-03 +6.942035e-06
1.148154e+04 +1.796495e-03 +7.185993e-06 +9.982035e-01 -7.185993e-06 +9.982035e-01 -7.185993e-06 +1.796495e-03 +7.185993e-06
1.188502e+04 +1.796495e-03 +7.438525e-06 +9.982035e-01 -7.438525e-06 +9.982035e-01 -7.438525e-06 +1.796495e-03 +7.438525e-06
1.230269e+04 +1.796495e-03 +7.699931e-06 +9.982035e-01 -7.699931e-06 +9.982035e-01 -7.699931e-06 +1.796495e-03 +7.699931e-06
1.273503e+04 +1.796496e-03 +7.970523e-06 +9.982035e-01 -7.970523e-06 +9.982035e-01 -7.970523e-06 +1.796496e-03 +7.970523e-06
1.318257e+04 +1.796496e-03 +8.250624e-06 +9.982035e-01 -8.250624e-06 +9.982035e-01 -8.250624e-06 +1.796496e-03 +8.250624e-06
1.364583e+04 +1.796496e-03 +8.540569e-06 +9.982035e-01 -8.540569e-06 +9.982035e-01 -8.540569e-06 +1.796496e-03 +8.540569e-06
1.412538e+04 +1.796496e-03 +8.840703e-06 +9.982035e-01 -8.840703e-06 +9.982035e-01 -8.840703e-06 +1.796496e-03 +8.840703e-06
1.462177e+04 +1.796496e-03 +9.151385e-06 +9.982035e-01 -9.151385e-06 +9.982035e-01 -9.151385e-06 +1.796496e-03 +9.151385e-06
1.513561e+04 +1.796496e-03 +9.472984e-06 +9.982035e-01 -9.472984e-06 +9.982035e-01 -9.472984e-06 +1.796496e-03 +9.472984e-06
1.566751e+04 +1.796496e-03 +9.805886e-06 +9.982035e-01 -9.805886e-06 +9.982035e-01 -9.805886e-06 +1.796496e-03 +9.805886e-06
1.621810e+04 +1.796496e-03 +1.015049e-05 +9.982035e-01 -1.015049e-05 +9.982035e-01 -1.015049e-05 +1.796496e-03 +1.015049e-05
1.678804e+04 +1.796496e-03 +1.050720e-05 +9.982035e-01 -1.050720e-05 +9.982035e-01 -1.050720e-05 +1.796496e-03 +1.050720e-05
1.737801e+04 +1.796496e-03 +1.087644e-05 +9.982035e-01 -1.087644e-05 +9.982035e-01 -1.087644e-05 +1.796496e-03 +1.087644e-05
1.798871e+04 +1.796496e-03 +1.125866e-05 +9.982035e-01 -1.125866e-05 +9.982035e-01 -1.125866e-05 +1.796496e-03 +1.125866e-05
1.862087e+04 +1.796496e-03 +1.165432e-05 +9.982035e-01 -1.165432e-05 +9.982035e-01 -1.165432e-05 +1.796496e-03 +1.165432e-05
1.927525e+04 +1.796496e-03 +1.206387e-05 +9.982035e-01 -1.206387e-05 +9.982035e-01 -1.206387e-05 +1.796496e-03 +1.206387e-05
1.995262e+04 +1.796496e-03 +1.248783e-05 +9.982035e-01 -1.248783e-05 +9.982035e-01 -1.248783e-05 +1.796496e-03 +1.248783e-05
2.065380e+04 +1.796496e-03 +1.292667e-05 +9.982035e-01 -1.292667e-05 +9.982035e-01 -1.292667e-05 +1.796496e-03 +1.292667e-05
2.137962e+04 +1.796496e-03 +1.338095e-05 +9.982035e-01 -1.338095e-05 +9.982035e-01 -1.338095e-05 +1.796496e-03 +1.338095e-05
2.213095e+04 +1.796496e-03 +1.385118e-05 +9.982035e-01 -1.385118e-05 +9.982035e-01 -1.385118e-05 +1.796496e-03 +1.385118e-05
2.290868e+04 +1.796496e-03 +1.433794e-05 +9.982035e-01 -1.433794e-05 +9.982035e-01 -1.433794e-05 +1.796496e-03 +1.433794e-05
2.371374e+04 +1.796496e-03 +1.484181e-05 +9.982035e-01 -1.484181e-05 +9.982035e-01 -1.484181e-05 +1.796496e-03 +1.484181e-05
2.454709e+04 +1.796496e-03 +1.536338e-05 +9.982035e-01 -1.536338e-05 +9.982035e-01 -1.536338e-05 +1.796496e-03 +1.536338e-05
2.540973e+04 +1.796496e-03 +1.590328e-05 +9.982035e-01 -1.590328e-05 +9.982035e-01 -1.590328e-05 +1.796496e-03 +1.590328e-05
2.630268e+04 +1.796496e-03 +1.646216e-05 +9.982035e-01 -1.646216e-05 +9.982035e-01 -1.646216e-05 +1.796496e-03 +1.646216e-05
2.722701e+04 +1.796496e-03 +1.704068e-05 +9.982035e-01 -1.704068e-05 +9.982035e-01 -1.704068e-05 +1.796496e-03 +1.704068e-05
2.818383e+04 +1.796496e-03 +1.763952e-05 +9.982035e-01 -1.763952e-05 +9.982035e-01 -1.763952e-05 +1.796496e-03 +1.763952e-05
2.917427e+04 +1.796496e-03 +1.825941e-05 +9.982035e-01 -1.825941e-05 +9.982035e-01 -1.825941e-05 +1.796496e-03 +1.825941e-05
3.019952e+04 +1.796496e-03 +1.890109e-05 +9.982035e-01 -1.890109e-05 +9.982035e-01 -1.890109e-05 +1.796496e-03 +1.890109e-05
3.126079e+04 +1.796496e-03 +1.956531e-05 +9.982035e-01 -1.956531e-05 +9.982035e-01 -1.956531e-05 +1.796496e-03 +1.956531e-05
3.235937e+04 +1.796496e-03 +2.025288e-05 +9.982035e-01 -2.025288e-05 +9.982035e-01 -2.025288e-05 +1.796496e-03 +2.025288e-05
3.349654e+04 +1.796496e-03 +2.096461e-05 +9.982035e-01 -2.096461e-05 +9.982035e-01 -2.096461e-05 +1.796496e-03 +2.096461e-05
3.467369e+04 +1.796496e-03 +2.170135e-05 +9.982035e-01 -2.170135e-05 +9.982035e-01 -2.170135e-05 +1.796496e-03 +2.170135e-05
3.589219e+04 +1.796496e-03 +2.246399e-05 +9.982035e-01 -2.246399e-05 +9.982035e-01 -2.246399e-05 +1.796496e-03 +2.246399e-05
3.715352e+04 +1.796496e-03 +2.325342e-05 +9.982035e-01 -2.325342e-05 +9.982035e-01 -2.325342e-05 +1.796496e-03 +2.325342e-05
3.845918e+04 +1.796496e-03 +2.407059e-05 +9.982035e-01 -2.407059e-05 +9.982035e-01 -2.407059e-05 +1.796496e-03 +2.407059e-05
3.981072e+04 +1.796496e-03 +2.491649e-05 +9.982035e-01 -2.491649e-05 +9.982035e-01 -2.491649e-05 +1.796496e-03 +2.491649e-05
4.120975e+04 +1.796496e-03 +2.579211e-05 +9.982035e-01 -2.579211e-05 +9.982035e-01 -2.579211e-05 +1.796496e-03 +2.579211e-05
4.265795e+04 +1.796496e-03 +2.669850e-05 +9.982035e-01 -2.669850e-05 +9.982035e-01 -2.669850e-05 +1.796496e-03 +2.669850e-05
4.415704e+04 +1.796496e-03 +2.763674e-05 +9.982035e-01 -2.763674e-05 +9.982035e-01 -2.763674e-05 +1.796496e-03 +2.763674e-05
4.570882e+04 +1.796496e-03 +2.860796e-05 +9.982035e-01 -2.860796e-05 +9.982035e-01 -2.860796e-05 +1.796496e-03 +2.860796e-05
4.731513e+04 +1.796496e-03 +2.961330e-05 +9.982035e-01 -2.961330e-05 +9.982035e-01 -2.961330e-05 +1.796496e-03 +2.961330e-05
4.897788e+04 +1.796496e-03 +3.065398e-05 +9.982035e-01 -3.065398e-05 +9.982035e-01 -3.065398e-05 +1.796496e-03 +3.065398e-05
5.069907e+04 +1.796497e-03 +3.173122e-05 +9.982035e-01 -3.173122e-05 +9.982035e-01 -3.173122e-05 +1.796497e-03 +3.173122e-05
5.248075e+04 +1.796497e-03 +3.284633e-05 +9.982035e-01 -3.284633e-05 +9.982035e-01 -3.284633e-05 +1.796497e-03 +3.284633e-05
5.432503e+04 +1.796497e-03 +3.400062e-05 +9.982035e-01 -3.400062e-05 +9.982035e-01 -3.400062e-05 +1.796497e-03 +3.400062e-05
5.623413e+04 +1.796497e-03 +3.519547e-05 +9.982035e-01 -3.519547e-05 +9.982035e-01 -3.519547e-05 +1.796497e-03 +3.519547e-05
5.821032e+04 +1.796497e-03 +3.643232e-05 +9.982035e-01 -3.643232e-05 +9.982035e-01 -3.643232e-05 +1.796497e-03 +3.643232e-05
6.025596e+04 +1.796497e-03 +3.771263e-05 +9.982035e-01 -3.771263e-05 +9.982035e-01 -3.771263e-05 +1.796497e-03 +3.771263e-05
6.237348e+04 +1.796497e-03 +3.903793e-05 +9.982035e-01 -3.903793e-05 +9.982035e-01 -3.903793e-05 +1.796497e-03 +3.903793e-05
6.456542e+04 +1.796497e-03 +4.040981e-05 +9.982035e-01 -4.040981e-05 +9.982035e-01 -4.040981e-05 +1.796497e-03 +4.040981e-05
6.683439e+04 +1.796497e-03 +4.182990e-05 +9.982035e-01 -4.182990e-05 +9.982035e-01 -4.182990e-05 +1.796497e-03 +4.182990e-05
6.918310e+04 +1.796497e-03 +4.329989e-05 +9.982035e-01 -4.329989e-05 +9.982035e-01 -4.329989e-05 +1.796497e-03 +4.329989e-05
7.161434e+04 +1.796498e-03 +4.482154e-05 +9.982035e-01 -4.482154e-05 +9.982035e-01 -4.482154e-05 +1.796498e-03 +4.482154e-05
7.413102e+04 +1.796498e-03 +4.639667e-05 +9.982035e-01 -4.639667e-05 +9.982035e-01 -4.639667e-05 +1.796498e-03 +4.639667e-05
7.673615e+04 +1.796498e-03 +4.802715e-05 +9.982035e-01 -4.802715e-05 +9.982035e-01 -4.802715e-05 +1.796498e-03 +4.802715e-05
7.943282e+04 +1.796498e-03 +4.971493e-05 +9.982035e-01 -4.971493e-05 +9.982035e-01 -4.971493e-05 +1.796498e-03 +4.971493e-05
8.222426e+04 +1.796498e-03 +5.146202e-05 +9.982035e-01 -5.146202e-05 +9.982035e-01 -5.146202e-05 +1.796498e-03 +5.146202e-05
8.511380e+04 +1.796499e-03 +5.327051e-05 +9.982035e-01 -5.327051e-05 +9.982035e-01 -5.327051e-05 +1.796499e-03 +5.327051e-05
8.810489e+04 +1.796499e-03 +5.514255e-05 +9.982035e-01 -5.514255e-05 +9.982035e-01 -5.514255e-05 +1.796499e-03 +5.514255e-05
9.120108e+04 +1.796499e-03 +5.708038e-05 +9.982035e-01 -5.708038e-05 +9.982035e-01 -5.708038e-05 +1.796499e-03 +5.708038e-05
9.440609e+04 +1.796499e-03 +5.908630e-05 +9.982035e-01 -5.908630e-05 +9.982035e-01 -5.908630e-05 +1.796499e-03 +5.908630e-05
9.772372e+04 +1.796500e-03 +6.116272e-05 +9.982035e-01 -6.116272e-05 +9.982035e-01 -6.116272e-05 +1.796500e-03 +6.116272e-05
1.011579e+05 +1.796500e-03 +6.331211e-05 +9.982035e-01 -6.331211e-05 +9.982035e-01 -6.331211e-05 +1.796500e-03 +6.331211e-05
1.047129e+05 +1.796500e-03 +6.553704e-05 +9.982035e-01 -6.553704e-05 +9.982035e-01 -6.553704e-05 +1.796500e-03 +6.553704e-05
1.083927e+05 +1.796500e-03 +6.784015e-05 +9.982035e-01 -6.784015e-05 +9.982035e-01 -6.784015e-05 +1.796500e-03 +6.784015e-05
1.122018e+05 +1.796501e-03 +7.022420e-05 +9.982035e-01 -7.022420e-05 +9.982035e-01 -7.022420e-05 +1.796501e-03 +7.022420e-05
1.161449e+05 +1.796501e-03 +7.269203e-05 +9.982035e-01 -7.269203e-05 +9.982035e-01 -7.269203e-05 +1.796501e-03 +7.269203e-05
1.202264e+05 +1.796502e-03 +7.524659e-05 +9.982035e-01 -7.524659e-05 +9.982035e-01 -7.524659e-05 +1.796502e-03 +7.524659e-05
1.244515e+05 +1.796502e-03 +7.789092e-05 +9.982035e-01 -7.789092e-05 +9.982035e-01 -7.789092e-05 +1.796502e-03 +7.789092e-05
1.288250e+05 +1.796502e-03 +8.062817e-05 +9.982035e-01 -8.062817e-05 +9.982035e-01 -8.062817e-05 +1.796502e-03 +8.062817e-05
1.333521e+05 +1.796503e-03 +8.346162e-05 +9.982035e-01 -8.346162e-05 +9.982035e-01 -8.346162e-05 +1.796503e-03 +8.346162e-05
1.380384e+05 +1.796504e-03 +8.639464e-05 +9.982035e-01 -8.639464e-05 +9.982035e-01 -8.639464e-05 +1.796504e-03 +8.639464e-05
1.428894e+05 +1.796504e-03 +8.943074e-05 +9.982035e-01 -8.943074e-05 +9.982035e-01 -8.943074e-05 +1.796504e-03 +8.943074e-05
1.479108e+05 +1.796505e-03 +9.257353e-05 +9.982035e-01 -9.257353e-05 +9.982035e-01 -9.257353e-05 +1.796505e-03 +9.257353e-05
1.531087e+05 +1.796505e-03 +9.582676e-05 +9.982035e-01 -9.582676e-05 +9.982035e-01 -9.582676e-05 +1.796505e-03 +9.582676e-05
1.584893e+05 +1.796506e-03 +9.919432e-05 +9.982035e-01 -9.919432e-05 +9.982035e-01 -9.919432e-05 +1.796506e-03 +9.919432e-05
1.640590e+05 +1.796507e-03 +1.026802e-04 +9.982035e-01 -1.026802e-04 +9.982035e-01 -1.026802e-04 +1.796507e-03 +1.026802e-04
1.698244e+05 +1.796508e-03 +1.062886e-04 +9.982035e-01 -1.062886e-04 +9.982035e-01 -1.062886e-04 +1.796508e-03 +1.062886e-04
1.757924e+05 +1.796509e-03 +1.100238e-04 +9.982035e-01 -1.100238e-04 +9.982035e-01 -1.100238e-04 +1.796509e-03 +1.100238e-04
1.819701e+05 +1.796510e-03 +1.138903e-04 +9.982035e-01 -1.138903e-04 +9.982035e-01 -1.138903e-04 +1.796510e-03 +1.138903e-04
1.883649e+05 +1.796511e-03 +1.178927e-04 +9.982035e-01 -1.178927e-04 +9.982035e-01 -1.178927e-04 +1.796511e-03 +1.178927e-04
1.949845e+05 +1.796512e-03 +1.220357e-04 +9.982035e-01 -1.220357e-04 +9.982035e-01 -1.220357e-04 +1.796512e-03 +1.220357e-04
2.018366e+05 +1.796513e-03 +1.263243e-04 +9.982035e-01 -1.263243e-04 +9.982035e-01 -1.263243e-04 +1.796513e-03 +1.263243e-04
2.089296e+05 +1.796514e-03 +1.307636e-04 +9.982035e-01 -1.307636e-04 +9.982035e-01 -1.307636e-04 +1.796514e-03 +1.307636e-04
2.162719e+05 +1.796515e-03 +1.353589e-04 +9.982035e-01 -1.353589e-04 +9.982035e-01 -1.353589e-04 +1.796515e-03 +1.353589e-04
2.238721e+05 +1.796517e-03 +1.401157e-04 +9.982035e-01 -1.401157e-04 +9.982035e-01 -1.401157e-04 +1.796517e-03 +1.401157e-04
2.317395e+05 +1.796518e-03 +1.450397e-04 +9.982035e-01 -1.450397e-04 +9.982035e-01 -1.450397e-04 +1.796518e-03 +1.450397e-04
2.398833e+05 +1.796520e-03 +1.501367e-04 +9.982035e-01 -1.501367e-04 +9.982035e-01 -1.501367e-04 +1.796520e-03 +1.501367e-04
2.483133e+05 +1.796522e-03 +1.554128e-04 +9.982035e-01 -1.554128e-04 +9.982035e-01 -1.554128e-04 +1.796522e-03 +1.554128e-04
2.570396e+05 +1.796524e-03 +1.608744e-04 +9.982035e-01 -1.608744e-04 +9.982035e-01 -1.608744e-04 +1.796524e-03 +1.608744e-04
2.660725e+05 +1.796526e-03 +1.665278e-04 +9.982035e-01 -1.665278e-04 +9.982035e-01 -1.665278e-04 +1.796526e-03 +1.665278e-04
2.754229e+05 +1.796528e-03 +1.723800e-04 +9.982035e-01 -1.723800e-04 +9.982035e-01 -1.723800e-04 +1.796528e-03 +1.723800e-04
2.851018e+05 +1.796530e-03 +1.784378e-04 +9.982035e-01 -1.784378e-04 +9.982035e-01 -1.784378e-04 +1.796530e-03 +1.784378e-04
2.951209e+05 +1.796533e-03 +1.847085e-04 +9.982035e-01 -1.847085e-04 +9.982035e-01 -1.847085e-04 +1.796533e-03 +1.847085e-04
3.054921e+05 +1.796535e-03 +1.911995e-04 +9.982035e-01 -1.911995e-04 +9.982035e-01 -1.911995e-04 +1.796535e-03 +1.911995e-04
3.162278e+05 +1.796538e-03 +1.979187e-04 +9.982035e-01 -1.979187e-04 +9.982035e-01 -1.979187e-04 +1.796538e-03 +1.979187e-04
3.273407e+05 +1.796541e-03 +2.048740e-04 +9.982035e-01 -2.048740e-04 +9.982035e-01 -2.048740e-04 +1.796541e-03 +2.048740e-04
3.388442e+05 +1.796544e-03 +2.120737e-04 +9.982035e-01 -2.120737e-04 +9.982035e-01 -2.120737e-04 +1.796544e-03 +2.120737e-04
3.507519e+05 +1.796548e-03 +2.195264e-04 +9.982035e-01 -2.195264e-04 +9.982035e-01 -2.195264e-04 +1.796548e-03 +2.195264e-04
3.630781e+05 +1.796552e-03 +2.272411e-04 +9.982034e-01 -2.272411e-04 +9.982034e-01 -2.272411e-04 +1.796552e-03 +2.272411e-04
3.758374e+05 +1.796556e-03 +2.352268e-04 +9.982034e-01 -2.352268e-04 +9.982034e-01 -2.352268e-04 +1.796556e-03 +2.352268e-04
3.890451e+05 +1.796560e-03 +2.434932e-04 +9.982034e-01 -2.434932e-04 +9.982034e-01 -2.434932e-04 +1.796560e-03 +2.434932e-04
4.027170e+05 +1.796564e-03 +2.520501e-04 +9.982034e-01 -2.520501e-04 +9.982034e-01 -2.520501e-04 +1.796564e-03 +2.520501e-04
4.168694e+05 +1.796569e-03 +2.609076e-04 +9.982034e-01 -2.609076e-04 +9.982034e-01 -2.609076e-04 +1.796569e-03 +2.609076e-04
4.315191e+05 +1.796575e-03 +2.700765e-04 +9.982034e-01 -2.700765e-04 +9.982034e-01 -2.700765e-04 +1.796575e-03 +2.700765e-04
4.466836e+05 +1.796580e-03 +2.795676e-04 +9.982034e-01 -2.795676e-04 +9.982034e-01 -2.795676e-04 +1.796580e-03 +2.795676e-04
4.623810e+05 +1.796586e-03 +2.893922e-04 +9.982034e-01 -2.893922e-04 +9.982034e-01 -2.893922e-04 +1.796586e-03 +2.893922e-04
4.786301e+05 +1.796593e-03 +2.995620e-04 +9.982034e-01 -2.995620e-04 +9.982034e-01 -2.995620e-04 +1.796593e-03 +2.995620e-04
4.954502e+05 +1.796600e-03 +3.100893e-04 +9.982034e-01 -3.100893e-04 +9.982034e-01 -3.100893e-04 +1.796600e-03 +3.100893e-04
5.128614e+05 +1.796607e-03 +3.209865e-04 +9.982034e-01 -3.209865e-04 +9.982034e-01 -3.209865e-04 +1.796607e-03 +3.209865e-04
5.308844e+05 +1.796615e-03 +3.322667e-04 +9.982034e-01 -3.322667e-04 +9.982034e-01 -3.322667e-04 +1.796615e-03 +3.322667e-04
5.495409e+05 +1.796624e-03 +3.439432e-04 +9.982034e-01 -3.439432e-04 +9.982034e-01 -3.439432e-04 +1.796624e-03 +3.439432e-04
5.688529e+05 +1.796633e-03 +3.560301e-04 +9.982034e-01 -3.560301e-04 +9.982034e-01 -3.560301e-04 +1.796633e-03 +3.560301e-04
5.888437e+05 +1.796643e-03 +3.685418e-04 +9.982034e-01 -3.685418e-04 +9.982034e-01 -3.685418e-04 +1.796643e-03 +3.685418e-04
6.095369e+05 +1.796654e-03 +3.814932e-04 +9.982033e-01 -3.814932e-04 +9.982033e-01 -3.814932e-04 +1.796654e-03 +3.814932e-04
6.309573e+05 +1.796665e-03 +3.948997e-04 +9.982033e-01 -3.948997e-04 +9.982033e-01 -3.948997e-04 +1.796665e-03 +3.948997e-04
6.531306e+05 +1.796677e-03 +4.087773e-04 +9.982033e-01 -4.087773e-04 +9.982033e-01 -4.087773e-04 +1.796677e-03 +4.087773e-04
6.760830e+05 +1.796690e-03 +4.231426e-04 +9.982033e-01 -4.231426e-04 +9.982033e-01 -4.231426e-04 +1.796690e-03 +4.231426e-04
6.998420e+05 +1.796704e-03 +4.380127e-04 +9.982033e-01 -4.380127e-04 +9.982033e-01 -4.380127e-04 +1.796704e-03 +4.380127e-04
7.244360e+05 +1.796719e-03 +4.534054e-04 +9.982033e-01 -4.534054e-04 +9.982033e-01 -4.534054e-04 +1.796719e-03 +4.534054e-04
7.498942e+05 +1.796735e-03 +4.693391e-04 +9.982033e-01 -4.693391e-04 +9.982033e-01 -4.693391e-04 +1.796735e-03 +4.693391e-04
7.762471e+05 +1.796752e-03 +4.858327e-04 +9.982032e-01 -4.858327e-04 +9.982032e-01 -4.858327e-04 +1.796752e-03 +4.858327e-04
8.035261e+05 +1.796770e-03 +5.029059e-04 +9.982032e-01 -5.029059e-04 +9.982032e-01 -5.029059e-04 +1.796770e-03 +5.029059e-04
8.317638e+05 +1.796790e-03 +5.205791e-04 +9.982032e-01 -5.205791e-04 +9.982032e-01 -5.205791e-04 +1.796790e-03 +5.205791e-04
8.609938e+05 +1.796811e-03 +5.388733e-04 +9.982032e-01 -5.388733e-04 +9.982032e-01 -5.388733e-04 +1.796811e-03 +5.388733e-04
8.912509e+05 +1.796834e-03 +5.578105e-04 +9.982032e-01 -5.578105e-04 +9.982032e-01 -5.578105e-04 +1.796834e-03 +5.578105e-04
9.225714e+05 +1.796858e-03 +5.774132e-04 +9.982031e-01 -5.774132e-04 +9.982031e-01 -5.774132e-04 +1.796858e-03 +5.774132e-04
9.549926e+05 +1.796884e-03 +5.977047e-04 +9.982031e-01 -5.977047e-04 +9.982031e-01 -5.977047e-04 +1.796884e-03 +5.977047e-04
9.885531e+05 +1.796911e-03 +6.187093e-04 +9.982031e-01 -6.187093e-04 +9.982031e-01 -6.187093e-04 +1.796911e-03 +6.187093e-04
1.023293e+06 +1.796941e-03 +6.404521e-04 +9.982031e-01 -6.404521e-04 +9.982031e-01 -6.404521e-04 +1.796941e-03 +6.404521e-04
1.059254e+06 +1.796973e-03 +6.629589e-04 +9.982030e-01 -6.629589e-04 +9.982030e-01 -6.629589e-04 +1.796973e-03 +6.629589e-04
1.096478e+06 +1.797007e-03 +6.862567e-04 +9.982030e-01 -6.862567e-04 +9.982030e-01 -6.862567e-04 +1.797007e-03 +6.862567e-04
1.135011e+06 +1.797044e-03 +7.103733e-04 +9.982030e-01 -7.103733e-04 +9.982030e-01 -7.103733e-04 +1.797044e-03 +7.103733e-04
1.174898e+06 +1.797083e-03 +7.353373e-04 +9.982029e-01 -7.353373e-04 +9.982029e-01 -7.353373e-04 +1.797083e-03 +7.353373e-04
1.216186e+06 +1.797125e-03 +7.611786e-04 +9.982029e-01 -7.611786e-04 +9.982029e-01 -7.611786e-04 +1.797125e-03 +7.611786e-04
1.258925e+06 +1.797170e-03 +7.879280e-04 +9.982028e-01 -7.879280e-04 +9.982028e-01 -7.879280e-04 +1.797170e-03 +7.879280e-04
1.303167e+06 +1.797218e-03 +8.156175e-04 +9.982028e-01 -8.156175e-04 +9.982028e-01 -8.156175e-04 +1.797218e-03 +8.156175e-04
1.348963e+06 +1.797270e-03 +8.442800e-04 +9.982027e-01 -8.442800e-04 +9.982027e-01 -8.442800e-04 +1.797270e-03 +8.442800e-04
1.396368e+06 +1.797325e-03 +8.739498e-04 +9.982027e-01 -8.739498e-04 +9.982027e-01 -8.739498e-04 +1.797325e-03 +8.739498e-04
1.445440e+06 +1.797385e-03 +9.046623e-04 +9.982026e-01 -9.046623e-04 +9.982026e-01 -9.046623e-04 +1.797385e-03 +9.046623e-04
1.496236e+06 +1.797448e-03 +9.364540e-04 +9.982026e-01 -9.364540e-04 +9.982026e-01 -9.364540e-04 +1.797448e-03 +9.364540e-04
1.548817e+06 +1.797516e-03 +9.693630e-04 +9.982025e-01 -9.693630e-04 +9.982025e-01 -9.693630e-04 +1.797516e-03 +9.693630e-04
1.603245e+06 +1.797589e-03 +1.003428e-03 +9.982024e-01 -1.003428e-03 +9.982024e-01 -1.003428e-03 +1.797589e-03 +1.003428e-03
1.659587e+06 +1.797668e-03 +1.038691e-03 +9.982023e-01 -1.038691e-03 +9.982023e-01 -1.038691e-03 +1.797668e-03 +1.038691e-03
1.717908e+06 +1.797752e-03 +1.075193e-03 +9.982022e-01 -1.075193e-03 +9.982022e-01 -1.075193e-03 +1.797752e-03 +1.075193e-03
1.778279e+06 +1.797841e-03 +1.112977e-03 +9.982022e-01 -1.112977e-03 +9.982022e-01 -1.112977e-03 +1.797841e-03 +1.112977e-03
1.840772e+06 +1.797938e-03 +1.152090e-03 +9.982021e-01 -1.152090e-03 +9.982021e-01 -1.152090e-03 +1.797938e-03 +1.152090e-03
1.905461e+06 +1.798041e-03 +1.192576e-03 +9.982020e-01 -1.192576e-03 +9.982020e-01 -1.192576e-03 +1.798041e-03 +1.192576e-03
1.972423e+06 +1.798151e-03 +1.234486e-03 +9.982018e-01 -1.234486e-03 +9.982018e-01 -1.234486e-03 +1.798151e-03 +1.234486e-03
2.041738e+06 +1.798270e-03 +1.277868e-03 +9.982017e-01 -1.277868e-03 +9.982017e-01 -1.277868e-03 +1.798270e-03 +1.277868e-03
2.113489e+06 +1.798397e-03 +1.322775e-03 +9.982016e-01 -1.322775e-03 +9.982016e-01 -1.322775e-03 +1.798397e-03 +1.322775e-03
2.187762e+06 +1.798533e-03 +1.369260e-03 +9.982015e-01 -1.369260e-03 +9.982015e-01 -1.369260e-03 +1.798533e-03 +1.369260e-03
2.264644e+06 +1.798678e-03 +1.417379e-03 +9.982013e-01 -1.417379e-03 +9.982013e-01 -1.417379e-03 +1.798678e-03 +1.417379e-03
2.344229e+06 +1.798834e-03 +1.467188e-03 +9.982012e-01 -1.467188e-03 +9.982012e-01 -1.467188e-03 +1.798834e-03 +1.467188e-03
2.426610e+06 +1.799002e-03 +1.518748e-03 +9.982010e-01 -1.518748e-03 +9.982010e-01 -1.518748e-03 +1.799002e-03 +1.518748e-03
2.511886e+06 +1.799181e-03 +1.572120e-03 +9.982008e-01 -1.572120e-03 +9.982008e-01 -1.572120e-03 +1.799181e-03 +1.572120e-03
2.600160e+06 +1.799373e-03 +1.627368e-03 +9.982006e-01 -1.627368e-03 +9.982006e-01 -1.627368e-03 +1.799373e-03 +1.627368e-03
2.691535e+06 +1.799579e-03 +1.684557e-03 +9.982004e-01 -1.684557e-03 +9.982004e-01 -1.684557e-03 +1.799579e-03 +1.684557e-03
2.786121e+06 +1.799799e-03 +1.743755e-03 +9.982002e-01 -1.743755e-03 +9.982002e-01 -1.743755e-03 +1.799799e-03 +1.743755e-03
2.884032e+06 +1.800036e-03 +1.805034e-03 +9.982000e-01 -1.805034e-03 +9.982000e-01 -1.805034e-03 +1.800036e-03 +1.805034e-03
2.985383e+06 +1.800289e-03 +1.868467e-03 +9.981997e-01 -1.868467e-03 +9.981997e-01 -1.868467e-03 +1.800289e-03 +1.868467e-03
3.090295e+06 +1.800560e-03 +1.934128e-03 +9.981994e-01 -1.934128e-03 +9.981994e-01 -1.934128e-03 +1.800560e-03 +1.934128e-03
3.198895e+06 +1.800851e-03 +2.002097e-03 +9.981991e-01 -2.002097e-03 +9.981991e-01 -2.002097e-03 +1.800851e-03 +2.002097e-03
3.311311e+06 +1.801162e-03 +2.072454e-03 +9.981988e-01 -2.072454e-03 +9.981988e-01 -2.072454e-03 +1.801162e-03 +2.072454e-03
3.427678e+06 +1.801496e-03 +2.145284e-03 +9.981985e-01 -2.145284e-03 +9.981985e-01 -2.145284e-03 +1.801496e-03 +2.145284e-03
3.548134e+06 +1.801854e-03 +2.220674e-03 +9.981981e-01 -2.220674e-03 +9.981981e-01 -2.220674e-03 +1.801854e-03 +2.220674e-03
3.672823e+06 +1.802237e-03 +2.298712e-03 +9.981978e-01 -2.298712e-03 +9.981978e-01 -2.298712e-03 +1.802237e-03 +2.298712e-03
3.801894e+06 +1.802648e-03 +2.379493e-03 +9.981974e-01 -2.379493e-03 +9.981974e-01 -2.379493e-03 +1.802648e-03 +2.379493e-03
3.935501e+06 +1.803088e-03 +2.463112e-03 +9.981969e-01 -2.463112e-03 +9.981969e-01 -2.463112e-03 +1.803088e-03 +2.463112e-03
4.073803e+06 +1.803559e-03 +2.549670e-03 +9.981964e-01 -2.549670e-03 +9.981964e-01 -2.549670e-03 +1.803559e-03 +2.549670e-03
4.216965e+06 +1.804064e-03 +2.639270e-03 +9.981959e-01 -2.639270e-03 +9.981959e-01 -2.639270e-03 +1.804064e-03 +2.639270e-03
4.365158e+06 +1.804606e-03 +2.732018e-03 +9.981954e-01 -2.732018e-03 +9.981954e-01 -2.732018e-03 +1.804606e-03 +2.732018e-03
4.518559e+06 +1.805186e-03 +2.828026e-03 +9.981948e-01 -2.828026e-03 +9.981948e-01 -2.828026e-03 +1.805186e-03 +2.828026e-03
4.677351e+06 +1.805807e-03 +2.927407e-03 +9.981942e-01 -2.927407e-03 +9.981942e-01 -2.927407e-03 +1.805807e-03 +2.927407e-03
4.841724e+06 +1.806473e-03 +3.030281e-03 +9.981935e-01 -3.030281e-03 +9.981935e-01 -3.030281e-03 +1.806473e-03 +3.030281e-03
5.011872e+06 +1.807187e-03 +3.136770e-03 +9.981928e-01 -3.136770e-03 +9.981928e-01 -3.136770e-03 +1.807187e-03 +3.136770e-03
5.188000e+06 +1.807951e-03 +3.247000e-03 +9.981920e-01 -3.247000e-03 +9.981920e-01 -3.247000e-03 +1.807951e-03 +3.247000e-03
5.370318e+06 +1.808771e-03 +3.361104e-03 +9.981912e-01 -3.361104e-03 +9.981912e-01 -3.361104e-03 +1.808771e-03 +3.361104e-03
5.559043e+06 +1.809649e-03 +3.479218e-03 +9.981904e-01 -3.479218e-03 +9.981904e-01 -3.479218e-03 +1.809649e-03 +3.479218e-03
5.754399e+06 +1.810589e-03 +3.601482e-03 +9.981894e-01 -3.601482e-03 +9.981894e-01 -3.601482e-03 +1.810589e-03 +3.601482e-03
5.956621e+06 +1.811597e-03 +3.728043e-03 +9.981884e-01 -3.728043e-03 +9.981884e-01 -3.728043e-03 +1.811597e-03 +3.728043e-03
6.165950e+06 +1.812677e-03 +3.859050e-03 +9.981873e-01 -3.859050e-03 +9.981873e-01 -3.859050e-03 +1.812677e-03 +3.859050e-03
6.382635e+06 +1.813835e-03 +3.994662e-03 +9.981862e-01 -3.994662e-03 +9.981862e-01 -3.994662e-03 +1.813835e-03 +3.994662e-03
6.606934e+06 +1.815075e-03 +4.135038e-03 +9.981849e-01 -4.135038e-03 +9.981849e-01 -4.135038e-03 +1.815075e-03 +4.135038e-03
6.839116e+06 +1.816404e-03 +4.280347e-03 +9.981836e-01 -4.280347e-03 +9.981836e-01 -4.280347e-03 +1.816404e-03 +4.280347e-03
7.079458e+06 +1.817827e-03 +4.430762e-03 +9.981822e-01 -4.430762e-03 +9.981822e-01 -4.430762e-03 +1.817827e-03 +4.430762e-03
7.328245e+06 +1.819353e-03 +4.586462e-03 +9.981806e-01 -4.586462e-03 +9.981806e-01 -4.586462e-03 +1.819353e-03 +4.586462e-03
7.585776e+06 +1.820988e-03 +4.747634e-03 +9.981790e-01 -4.747634e-03 +9.981790e-01 -4.747634e-03 +1.820988e-03 +4.747634e-03
7.852356e+06 +1.822739e-03 +4.914468e-03 +9.981773e-01 -4.914468e-03 +9.981773e-01 -4.914468e-03 +1.822739e-03 +4.914468e-03
8.128305e+06 +1.824616e-03 +5.087164e-03 +9.981754e-01 -5.087164e-03 +9.981754e-01 -5.087164e-03 +1.824616e-03 +5.087164e-03
8.413951e+06 +1.826627e-03 +5.265929e-03 +9.981734e-01 -5.265929e-03 +9.981734e-01 -5.265929e-03 +1.826627e-03 +5.265929e-03
8.709636e+06 +1.828782e-03 +5.450974e-03 +9.981712e-01 -5.450974e-03 +9.981712e-01 -5.450974e-03 +1.828782e-03 +5.450974e-03
9.015711e+06 +1.831092e-03 +5.642521e-03 +9.981689e-01 -5.642521e-03 +9.981689e-01 -5.642521e-03 +1.831092e-03 +5.642521e-03
9.332543e+06 +1.833566e-03 +5.840799e-03 +9.981664e-01 -5.840799e-03 +9.981664e-01 -5.840799e-03 +1.833566e-03 +5.840799e-03
9.660509e+06 +1.836217e-03 +6.046043e-03 +9.981638e-01 -6.046043e-03 +9.981638e-01 -6.046043e-03 +1.836217e-03 +6.046043e-03
1.000000e+07 +1.839058e-03 +6.258498e-03 +9.981609e-01 -6.258498e-03 +9.981609e-01 -6.258498e-03 +1.839058e-03 +6.258498e-03
1.035142e+07 +1.842102e-03 +6.478417e-03 +9.981579e-01 -6.478417e-03 +9.981579e-01 -6.478417e-03 +1.842102e-03 +6.478417e-03
1.071519e+07 +1.845363e-03 +6.706063e-03 +9.981546e-01 -6.706063e-03 +9.981546e-01 -6.706063e-03 +1.845363e-03 +6.706063e-03
1.109175e+07 +1.848858e-03 +6.941706e-03 +9.981511e-01 -6.941706e-03 +9.981511e-01 -6.941706e-03 +1.848858e-03 +6.941706e-03
1.148154e+07 +1.852603e-03 +7.185628e-03 +9.981474e-01 -7.185628e-03 +9.981474e-01 -7.185628e-03 +1.852603e-03 +7.185628e-03
1.188502e+07 +1.856615e-03 +7.438120e-03 +9.981434e-01 -7.438120e-03 +9.981434e-01 -7.438120e-03 +1.856615e-03 +7.438120e-03
1.230269e+07 +1.860915e-03 +7.699482e-03 +9.981391e-01 -7.699482e-03 +9.981391e-01 -7.699482e-03 +1.860915e-03 +7.699482e-03
1.273503e+07 +1.865522e-03 +7.970025e-03 +9.981345e-01 -7.970025e-03 +9.981345e-01 -7.970025e-03 +1.865522e-03 +7.970025e-03
1.318257e+07 +1.870458e-03 +8.250072e-03 +9.981295e-01 -8.250072e-03 +9.981295e-01 -8.250072e-03 +1.870458e-03 +8.250072e-03
1.364583e+07 +1.875748e-03 +8.539957e-03 +9.981243e-01 -8.539957e-03 +9.981243e-01 -8.539957e-03 +1.875748e-03 +8.539957e-03
1.412538e+07 +1.881416e-03 +8.840024e-03 +9.981186e-01 -8.840024e-03 +9.981186e-01 -8.840024e-03 +1.881416e-03 +8.840024e-03
1.462177e+07 +1.887489e-03 +9.150631e-03 +9.981125e-01 -9.150631e-03 +9.981125e-01 -9.150631e-03 +1.887489e-03 +9.150631e-03
1.513561e+07 +1.893996e-03 +9.472148e-03 +9.981060e-01 -9.472148e-03 +9.981060e-01 -9.472148e-03 +1.893996e-03 +9.472148e-03
1.566751e+07 +1.900969e-03 +9.804958e-03 +9.980990e-01 -9.804958e-03 +9.980990e-01 -9.804958e-03 +1.900969e-03 +9.804958e-03
1.621810e+07 +1.908440e-03 +1.014946e-02 +9.980916e-01 -1.014946e-02 +9.980916e-01 -1.014946e-02 +1.908440e-03 +1.014946e-02
1.678804e+07 +1.916445e-03 +1.050605e-02 +9.980836e-01 -1.050605e-02 +9.980836e-01 -1.050605e-02 +1.916445e-03 +1.050605e-02
1.737801e+07 +1.925023e-03 +1.087518e-02 +9.980750e-01 -1.087518e-02 +9.980750e-01 -1.087518e-02 +1.925023e-03 +1.087518e-02
1.798871e+07 +1.934215e-03 +1.125726e-02 +9.980658e-01 -1.125726e-02 +9.980658e-01 -1.125726e-02 +1.934215e-03 +1.125726e-02
1.862087e+07 +1.944063e-03 +1.165276e-02 +9.980559e-01 -1.165276e-02 +9.980559e-01 -1.165276e-02 +1.944063e-03 +1.165276e-02
1.927525e+07 +1.954616e-03 +1.206215e-02 +9.980454e-01 -1.206215e-02 +9.980454e-01 -1.206215e-02 +1.954616e-03 +1.206215e-02
1.995262e+07 +1.965923e-03 +1.248591e-02 +9.980341e-01 -1.248591e-02 +9.980341e-01 -1.248591e-02 +1.965923e-03 +1.248591e-02
2.065380e+07 +1.978039e-03 +1.292455e-02 +9.980220e-01 -1.292455e-02 +9.980220e-01 -1.292455e-02 +1.978039e-03 +1.292455e-02
2.137962e+07 +1.991021e-03 +1.337859e-02 +9.980090e-01 -1.337859e-02 +9.980090e-01 -1.337859e-02 +1.991021e-03 +1.337859e-02
2.213095e+07 +2.004931e-03 +1.384857e-02 +9.979951e-01 -1.384857e-02 +9.979951e-01 -1.384857e-02 +2.004931e-03 +1.384857e-02
2.290868e+07 +2.019836e-03 +1.433504e-02 +9.979802e-01 -1.433504e-02 +9.979802e-01 -1.433504e-02 +2.019836e-03 +1.433504e-02
2.371374e+07 +2.035806e-03 +1.483859e-02 +9.979642e-01 -1.483859e-02 +9.979642e-01 -1.483859e-02 +2.035806e-03 +1.483859e-02
2.454709e+07 +2.052919e-03 +1.535982e-02 +9.979471e-01 -1.535982e-02 +9.979471e-01 -1.535982e-02 +2.052919e-03 +1.535982e-02
2.540973e+07 +2.071254e-03 +1.589933e-02 +9.979287e-01 -1.589933e-02 +9.979287e-01 -1.589933e-02 +2.071254e-03 +1.589933e-02
2.630268e+07 +2.090901e-03 +1.645777e-02 +9.979091e-01 -1.645777e-02 +9.979091e-01 -1.645777e-02 +2.090901e-03 +1.645777e-02
2.722701e+07 +2.111951e-03 +1.703581e-02 +9.978880e-01 -1.703581e-02 +9.978880e-01 -1.703581e-02 +2.111951e-03 +1.703581e-02
2.818383e+07 +2.134507e-03 +1.763412e-02 +9.978655e-01 -1.763412e-02 +9.978655e-01 -1.763412e-02 +2.134507e-03 +1.763412e-02
2.917427e+07 +2.158675e-03 +1.825343e-02 +9.978413e-01 -1.825343e-02 +9.978413e-01 -1.825343e-02 +2.158675e-03 +1.825343e-02
3.019952e+07 +2.184571e-03 +1.889445e-02 +9.978154e-01 -1.889445e-02 +9.978154e-01 -1.889445e-02 +2.184571e-03 +1.889445e-02
3.126079e+07 +2.212317e-03 +1.955795e-02 +9.977877e-01 -1.955795e-02 +9.977877e-01 -1.955795e-02 +2.212317e-03 +1.955795e-02
3.235937e+07 +2.242047e-03 +2.024471e-02 +9.977580e-01 -2.024471e-02 +9.977580e-01 -2.024471e-02 +2.242047e-03 +2.024471e-02
3.349654e+07 +2.273901e-03 +2.095555e-02 +9.977261e-01 -2.095555e-02 +9.977261e-01 -2.095555e-02 +2.273901e-03 +2.095555e-02
3.467369e+07 +2.308032e-03 +2.169130e-02 +9.976920e-01 -2.169130e-02 +9.976920e-01 -2.169130e-02 +2.308032e-03 +2.169130e-02
3.589219e+07 +2.344603e-03 +2.245284e-02 +9.976554e-01 -2.245284e-02 +9.976554e-01 -2.245284e-02 +2.344603e-03 +2.245284e-02
3.715352e+07 +2.383786e-03 +2.324106e-02 +9.976162e-01 -2.324106e-02 +9.976162e-01 -2.324106e-02 +2.383786e-03 +2.324106e-02
3.845918e+07 +2.425770e-03 +2.405688e-02 +9.975742e-01 -2.405688e-02 +9.975742e-01 -2.405688e-02 +2.425770e-03 +2.405688e-02
3.981072e+07 +2.470753e-03 +2.490128e-02 +9.975292e-01 -2.490128e-02 +9.975292e-01 -2.490128e-02 +2.470753e-03 +2.490128e-02
4.120975e+07 +2.518950e-03 +2.577524e-02 +9.974810e-01 -2.577524e-02 +9.974810e-01 -2.577524e-02 +2.518950e-03 +2.577524e-02
4.265795e+07 +2.570591e-03 +2.667979e-02 +9.974294e-01 -2.667979e-02 +9.974294e-01 -2.667979e-02 +2.570591e-03 +2.667979e-02
4.415704e+07 +2.625920e-03 +2.761599e-02 +9.973741e-01 -2.761599e-02 +9.973741e-01 -2.761599e-02 +2.625920e-03 +2.761599e-02
4.570882e+07 +2.685202e-03 +2.858494e-02 +9.973148e-01 -2.858494e-02 +9.973148e-01 -2.858494e-02 +2.685202e-03 +2.858494e-02
4.731513e+07 +2.748718e-03 +2.958777e-02 +9.972513e-01 -2.958777e-02 +9.972513e-01 -2.958777e-02 +2.748718e-03 +2.958777e-02
4.897788e+07 +2.816770e-03 +3.062566e-02 +9.971832e-01 -3.062566e-02 +9.971832e-01 -3.062566e-02 +2.816770e-03 +3.062566e-02
5.069907e+07 +2.889681e-03 +3.169982e-02 +9.971103e-01 -3.169982e-02 +9.971103e-01 -3.169982e-02 +2.889681e-03 +3.169982e-02
5.248075e+07 +2.967799e-03 +3.281150e-02 +9.970322e-01 -3.281150e-02 +9.970322e-01 -3.281150e-02 +2.967799e-03 +3.281150e-02
5.432503e+07 +3.051493e-03 +3.396199e-02 +9.969485e-01 -3.396199e-02 +9.969485e-01 -3.396199e-02 +3.051493e-03 +3.396199e-02
5.623413e+07 +3.141163e-03 +3.515263e-02 +9.968588e-01 -3.515263e-02 +9.968588e-01 -3.515263e-02 +3.141163e-03 +3.515263e-02
5.821032e+07 +3.237232e-03 +3.638480e-02 +9.967628e-01 -3.638480e-02 +9.967628e-01 -3.638480e-02 +3.237232e-03 +3.638480e-02
6.025596e+07 +3.340157e-03 +3.765992e-02 +9.966598e-01 -3.765992e-02 +9.966598e-01 -3.765992e-02 +3.340157e-03 +3.765992e-02
6.237348e+07 +3.450427e-03 +3.897948e-02 +9.965496e-01 -3.897948e-02 +9.965496e-01 -3.897948e-02 +3.450427e-03 +3.897948e-02
6.456542e+07 +3.568563e-03 +4.034498e-02 +9.964314e-01 -4.034498e-02 +9.964314e-01 -4.034498e-02 +3.568563e-03 +4.034498e-02
6.683439e+07 +3.695126e-03 +4.175800e-02 +9.963049e-01 -4.175800e-02 +9.963049e-01 -4.175800e-02 +3.695126e-03 +4.175800e-02
6.918310e+07 +3.830714e-03 +4.322015e-02 +9.961693e-01 -4.322015e-02 +9.961693e-01 -4.322015e-02 +3.830714e-03 +4.322015e-02
7.161434e+07 +3.975970e-03 +4.473310e-02 +9.960240e-01 -4.473310e-02 +9.960240e-01 -4.473310e-02 +3.975970e-03 +4.473310e-02
7.413102e+07 +4.131581e-03 +4.629858e-02 +9.958684e-01 -4.629858e-02 +9.958684e-01 -4.629858e-02 +4.131581e-03 +4.629858e-02
7.673615e+07 +4.298283e-03 +4.791837e-02 +9.957017e-01 -4.791837e-02 +9.957017e-01 -4.791837e-02 +4.298283e-03 +4.791837e-02
7.943282e+07 +4.476861e-03 +4.959428e-02 +9.955231e-01 -4.959428e-02 +9.955231e-01 -4.959428e-02 +4.476861e-03 +4.959428e-02
8.222426e+07 +4.668160e-03 +5.132822e-02 +9.953318e-01 -5.132822e-02 +9.953318e-01 -5.132822e-02 +4.668160e-03 +5.132822e-02
8.511380e+07 +4.873082e-03 +5.312212e-02 +9.951269e-01 -5.312212e-02 +9.951269e-01 -5.312212e-02 +4.873082e-03 +5.312212e-02
8.810489e+07 +5.092592e-03 +5.497798e-02 +9.949074e-01 -5.497798e-02 +9.949074e-01 -5.497798e-02 +5.092592e-03 +5.497798e-02
9.120108e+07 +5.327724e-03 +5.689788e-02 +9.946723e-01 -5.689788e-02 +9.946723e-01 -5.689788e-02 +5.327724e-03 +5.689788e-02
9.440609e+07 +5.579583e-03 +5.888391e-02 +9.944204e-01 -5.888391e-02 +9.944204e-01 -5.888391e-02 +5.579583e-03 +5.888391e-02
9.772372e+07 +5.849352e-03 +6.093828e-02 +9.941506e-01 -6.093828e-02 +9.941506e-01 -6.093828e-02 +5.849352e-03 +6.093828e-02
1.011579e+08 +6.138298e-03 +6.306322e-02 +9.938617e-01 -6.306322e-02 +9.938617e-01 -6.306322e-02 +6.138298e-03 +6.306322e-02
1.047129e+08 +6.447775e-03 +6.526103e-02 +9.935522e-01 -6.526103e-02 +9.935522e-01 -6.526103e-02 +6.447775e-03 +6.526103e-02
1.083927e+08 +6.779230e-03 +6.753408e-02 +9.932208e-01 -6.753408e-02 +9.932208e-01 -6.753408e-02 +6.779230e-03 +6.753408e-02
1.122018e+08 +7.134214e-03 +6.988480e-02 +9.928658e-01 -6.988480e-02 +9.928658e-01 -6.988480e-02 +7.134214e-03 +6.988480e-02
1.161449e+08 +7.514383e-03 +7.231567e-02 +9.924856e-01 -7.231567e-02 +9.924856e-01 -7.231567e-02 +7.514383e-03 +7.231567e-02
1.202264e+08 +7.921508e-03 +7.482925e-02 +9.920785e-01 -7.482925e-02 +9.920785e-01 -7.482925e-02 +7.921508e-03 +7.482925e-02
1.244515e+08 +8.357482e-03 +7.742816e-02 +9.916425e-01 -7.742816e-02 +9.916425e-01 -7.742816e-02 +8.357482e-03 +7.742816e-02
1.288250e+08 +8.824330e-03 +8.011506e-02 +9.911757e-01 -8.011506e-02 +9.911757e-01 -8.011506e-02 +8.824330e-03 +8.011506e-02
1.333521e+08 +9.324214e-03 +8.289269e-02 +9.906758e-01 -8.289269e-02 +9.906758e-01 -8.289269e-02 +9.324214e-03 +8.289269e-02
1.380384e+08 +9.859446e-03 +8.576383e-02 +9.901406e-01 -8.576383e-02 +9.901406e-01 -8.576383e-02 +9.859446e-03 +8.576383e-02
1.428894e+08 +1.043249e-02 +8.873133e-02 +9.895675e-01 -8.873133e-02 +9.895675e-01 -8.873133e-02 +1.043249e-02 +8.873133e-02
1.479108e+08 +1.104599e-02 +9.179809e-02 +9.889540e-01 -9.179809e-02 +9.889540e-01 -9.179809e-02 +1.104599e-02 +9.179809e-02
1.531087e+08 +1.170276e-02 +9.496706e-02 +9.882972e-01 -9.496706e-02 +9.882972e-01 -9.496706e-02 +1.170276e-02 +9.496706e-02
1.584893e+08 +1.240581e-02 +9.824123e-02 +9.875942e-01 -9.824123e-02 +9.875942e-01 -9.824123e-02 +1.240581e-02 +9.824123e-02
1.640590e+08 +1.315833e-02 +1.016236e-01 +9.868417e-01 -1.016236e-01 +9.868417e-01 -1.016236e-01 +1.315833e-02 +1.016236e-01
1.698244e+08 +1.396375e-02 +1.051173e-01 +9.860362e-01 -1.051173e-01 +9.860362e-01 -1.051173e-01 +1.396375e-02 +1.051173e-01
1.757924e+08 +1.482573e-02 +1.087255e-01 +9.851743e-01 -1.087255e-01 +9.851743e-01 -1.087255e-01 +1.482573e-02 +1.087255e-01
1.819701e+08 +1.574814e-02 +1.124511e-01 +9.842519e-01 -1.124511e-01 +9.842519e-01 -1.124511e-01 +1.574814e-02 +1.124511e-01
1.883649e+08 +1.673515e-02 +1.162974e-01 +9.832649e-01 -1.162974e-01 +9.832649e-01 -1.162974e-01 +1.673515e-02 +1.162974e-01
1.949845e+08 +1.779116e-02 +1.202676e-01 +9.822088e-01 -1.202676e-01 +9.822088e-01 -1.202676e-01 +1.779116e-02 +1.202676e-01
2.018366e+08 +1.892088e-02 +1.243647e-01 +9.810791e-01 -1.243647e-01 +9.810791e-01 -1.243647e-01 +1.892088e-02 +1.243647e-01
2.089296e+08 +2.012932e-02 +1.285919e-01 +9.798707e-01 -1.285919e-01 +9.798707e-01 -1.285919e-01 +2.012932e-02 +1.285919e-01
2.162719e+08 +2.142181e-02 +1.329523e-01 +9.785782e-01 -1.329523e-01 +9.785782e-01 -1.329523e-01 +2.142181e-02 +1.329523e-01
2.238721e+08 +2.280400e-02 +1.374489e-01 +9.771960e-01 -1.374489e-01 +9.771960e-01 -1.374489e-01 +2.280400e-02 +1.374489e-01
2.317395e+08 +2.428194e-02 +1.420848e-01 +9.757181e-01 -1.420848e-01 +9.757181e-01 -1.420848e-01 +2.428194e-02 +1.420848e-01
2.398833e+08 +2.586200e-02 +1.468628e-01 +9.741380e-01 -1.468628e-01 +9.741380e-01 -1.468628e-01 +2.586200e-02 +1.468628e-01
2.483133e+08 +2.755097e-02 +1.517858e-01 +9.724490e-01 -1.517858e-01 +9.724490e-01 -1.517858e-01 +2.755097e-02 +1.517858e-01
2.570396e+08 +2.935607e-02 +1.568565e-01 +9.706439e-01 -1.568565e-01 +9.706439e-01 -1.568565e-01 +2.935607e-02 +1.568565e-01
2.660725e+08 +3.128491e-02 +1.620774e-01 +9.687151e-01 -1.620774e-01 +9.687151e-01 -1.620774e-01 +3.128491e-02 +1.620774e-01
2.754229e+08 +3.334559e-02 +1.674508e-01 +9.666544e-01 -1.674508e-01 +9.666544e-01 -1.674508e-01 +3.334559e-02 +1.674508e-01
2.851018e+08 +3.554665e-02 +1.729789e-01 +9.644533e-01 -1.729789e-01 +9.644533e-01 -1.729789e-01 +3.554665e-02 +1.729789e-01
2.951209e+08 +3.789714e-02 +1.786637e-01 +9.621029e-01 -1.786637e-01 +9.621029e-01 -1.786637e-01 +3.789714e-02 +1.786637e-01
3.054921e+08 +4.040660e-02 +1.845068e-01 +9.595934e-01 -1.845068e-01 +9.595934e-01 -1.845068e-01 +4.040660e-02 +1.845068e-01
3.162278e+08 +4.308511e-02 +1.905093e-01 +9.569149e-01 -1.905093e-01 +9.569149e-01 -1.905093e-01 +4.308511e-02 +1.905093e-01
3.273407e+08 +4.594327e-02 +1.966724e-01 +9.540567e-01 -1.966724e-01 +9.540567e-01 -1.966724e-01 +4.594327e-02 +1.966724e-01
3.388442e+08 +4.899226e-02 +2.029965e-01 +9.510077e-01 -2.029965e-01 +9.510077e-01 -2.029965e-01 +4.899226e-02 +2.029965e-01
3.507519e+08 +5.224381e-02 +2.094816e-01 +9.477562e-01 -2.094816e-01 +9.477562e-01 -2.094816e-01 +5.224381e-02 +2.094816e-01
3.600000e+08 +5.483511e-02 +2.144743e-01 +9.451649e-01 -2.144743e-01 +9.451649e-01 -2.144743e-01 +5.483511e-02 +2.144743e-01
3.630781e+08 +5.571022e-02 +2.161273e-01 +9.442898e-01 -2.161273e-01 +9.442898e-01 -2.161273e-01 +5.571022e-02 +2.161273e-01
3.701983e+08 +5.775856e-02 +2.199342e-01 +9.422414e-01 -2.199342e-01 +9.422414e-01 -2.199342e-01 +5.775856e-02 +2.199342e-01
3.758374e+08 +5.940441e-02 +2.229324e-01 +9.405956e-01 -2.229324e-01 +9.405956e-01 -2.229324e-01 +5.940441e-02 +2.229324e-01
3.806855e+08 +6.083592e-02 +2.254979e-01 +9.391641e-01 -2.254979e-01 +9.391641e-01 -2.254979e-01 +6.083592e-02 +2.254979e-01
3.890451e+08 +6.333985e-02 +2.298952e-01 +9.366601e-01 -2.298952e-01 +9.366601e-01 -2.298952e-01 +6.333985e-02 +2.298952e-01
3.914698e+08 +6.407445e-02 +2.311643e-01 +9.359256e-01 -2.311643e-01 +9.359256e-01 -2.311643e-01 +6.407445e-02 +2.311643e-01
4.025596e+08 +6.748169e-02 +2.369318e-01 +9.325183e-01 -2.369318e-01 +9.325183e-01 -2.369318e-01 +6.748169e-02 +2.369318e-01
4.027170e+08 +6.753063e-02 +2.370132e-01 +9.324694e-01 -2.370132e-01 +9.324694e-01 -2.370132e-01 +6.753063e-02 +2.370132e-01
4.139635e+08 +7.106542e-02 +2.427987e-01 +9.289346e-01 -2.427987e-01 +9.289346e-01 -2.427987e-01 +7.106542e-02 +2.427987e-01
4.168694e+08 +7.199139e-02 +2.442832e-01 +9.280086e-01 -2.442832e-01 +9.280086e-01 -2.442832e-01 +7.199139e-02 +2.442832e-01
4.256905e+08 +7.483368e-02 +2.487629e-01 +9.251663e-01 -2.487629e-01 +9.251663e-01 -2.487629e-01 +7.483368e-02 +2.487629e-01
4.315191e+08 +7.673738e-02 +2.517008e-01 +9.232626e-01 -2.517008e-01 +9.232626e-01 -2.517008e-01 +7.673738e-02 +2.517008e-01
4.377497e+08 +7.879471e-02 +2.548217e-01 +9.212053e-01 -2.548217e-01 +9.212053e-01 -2.548217e-01 +7.879471e-02 +2.548217e-01
4.466836e+08 +8.178437e-02 +2.592609e-01 +9.182156e-01 -2.592609e-01 +9.182156e-01 -2.592609e-01 +8.178437e-02 +2.592609e-01
4.501506e+08 +8.295703e-02 +2.609722e-01 +9.170430e-01 -2.609722e-01 +9.170430e-01 -2.609722e-01 +8.295703e-02 +2.609722e-01
4.623810e+08 +8.714868e-02 +2.669573e-01 +9.128513e-01 -2.669573e-01 +9.128513e-01 -2.669573e-01 +8.714868e-02 +2.669573e-01
4.629027e+08 +8.732935e-02 +2.672108e-01 +9.126707e-01 -2.672108e-01 +9.126707e-01 -2.672108e-01 +8.732935e-02 +2.672108e-01
4.760161e+08 +9.192060e-02 +2.735334e-01 +9.080794e-01 -2.735334e-01 +9.080794e-01 -2.735334e-01 +9.192060e-02 +2.735334e-01
4.786301e+08 +9.284713e-02 +2.747824e-01 +9.071529e-01 -2.747824e-01 +9.071529e-01 -2.747824e-01 +9.284713e-02 +2.747824e-01
4.895009e+08 +9.673990e-02 +2.799356e-01 +9.032601e-01 -2.799356e-01 +9.032601e-01 -2.799356e-01 +9.673990e-02 +2.799356e-01
4.954502e+08 +9.889698e-02 +2.827277e-01 +9.011030e-01 -2.827277e-01 +9.011030e-01 -2.827277e-01 +9.889698e-02 +2.827277e-01
5.033678e+08 +1.017966e-01 +2.864122e-01 +8.982034e-01 -2.864122e-01 +8.982034e-01 -2.864122e-01 +1.017966e-01 +2.864122e-01
5.128614e+08 +1.053159e-01 +2.907828e-01 +8.946841e-01 -2.907828e-01 +8.946841e-01 -2.907828e-01 +1.053159e-01 +2.907828e-01
5.176275e+08 +1.071000e-01 +2.929574e-01 +8.929000e-01 -2.929574e-01 +8.929000e-01 -2.929574e-01 +1.071000e-01 +2.929574e-01
5.308844e+08 +1.121219e-01 +2.989364e-01 +8.878781e-01 -2.989364e-01 +8.878781e-01 -2.989364e-01 +1.121219e-01 +2.989364e-01
5.322912e+08 +1.126598e-01 +2.995648e-01 +8.873402e-01 -2.995648e-01 +8.873402e-01 -2.995648e-01 +1.126598e-01 +2.995648e-01
5.473702e+08 +1.184857e-01 +3.062272e-01 +8.815143e-01 -3.062272e-01 +8.815143e-01 -3.062272e-01 +1.184857e-01 +3.062272e-01
5.495409e+08 +1.193332e-01 +3.071751e-01 +8.806668e-01 -3.071751e-01 +8.806668e-01 -3.071751e-01 +1.193332e-01 +3.071751e-01
5.628765e+08 +1.245874e-01 +3.129368e-01 +8.754126e-01 -3.129368e-01 +8.754126e-01 -3.129368e-01 +1.245874e-01 +3.129368e-01
5.688529e+08 +1.269683e-01 +3.154841e-01 +8.730317e-01 -3.154841e-01 +8.730317e-01 -3.154841e-01 +1.269683e-01 +3.154841e-01
5.788220e+08 +1.309747e-01 +3.196849e-01 +8.690253e-01 -3.196849e-01 +8.690253e-01 -3.196849e-01 +1.309747e-01 +3.196849e-01
5.888437e+08 +1.350456e-01 +3.238467e-01 +8.649544e-01 -3.238467e-01 +8.649544e-01 -3.238467e-01 +1.350456e-01 +3.238467e-01
5.952192e+08 +1.376574e-01 +3.264622e-01 +8.623426e-01 -3.264622e-01 +8.623426e-01 -3.264622e-01 +1.376574e-01 +3.264622e-01
6.095369e+08 +1.435836e-01 +3.322442e-01 +8.564164e-01 -3.322442e-01 +8.564164e-01 -3.322442e-01 +1.435836e-01 +3.322442e-01
6.120809e+08 +1.446451e-01 +3.332582e-01 +8.553549e-01 -3.332582e-01 +8.553549e-01 -3.332582e-01 +1.446451e-01 +3.332582e-01
6.294203e+08 +1.519475e-01 +3.400618e-01 +8.480525e-01 -3.400618e-01 +8.480525e-01 -3.400618e-01 +1.519475e-01 +3.400618e-01
6.309573e+08 +1.526004e-01 +3.406559e-01 +8.473996e-01 -3.406559e-01 +8.473996e-01 -3.406559e-01 +1.526004e-01 +3.406559e-01
6.472509e+08 +1.595740e-01 +3.468610e-01 +8.404260e-01 -3.468610e-01 +8.404260e-01 -3.468610e-01 +1.595740e-01 +3.468610e-01
6.531306e+08 +1.621139e-01 +3.490590e-01 +8.378861e-01 -3.490590e-01 +8.378861e-01 -3.490590e-01 +1.621139e-01 +3.490590e-01
6.655866e+08 +1.675339e-01 +3.536427e-01 +8.324661e-01 -3.536427e-01 +8.324661e-01 -3.536427e-01 +1.675339e-01 +3.536427e-01
6.760830e+08 +1.721414e-01 +3.574284e-01 +8.278586e-01 -3.574284e-01 +8.278586e-01 -3.574284e-01 +1.721414e-01 +3.574284e-01
6.844417e+08 +1.758359e-01 +3.603928e-01 +8.241641e-01 -3.603928e-01 +8.241641e-01 -3.603928e-01 +1.758359e-01 +3.603928e-01
6.998420e+08 +1.826994e-01 +3.657370e-01 +8.173006e-01 -3.657370e-01 +8.173006e-01 -3.657370e-01 +1.826994e-01 +3.657370e-01
7.038310e+08 +1.844887e-01 +3.670964e-01 +8.155113e-01 -3.670964e-01 +8.155113e-01 -3.670964e-01 +1.844887e-01 +3.670964e-01
7.237695e+08 +1.935004e-01 +3.737374e-01 +8.064996e-01 -3.737374e-01 +8.064996e-01 -3.737374e-01 +1.935004e-01 +3.737374e-01
7.244360e+08 +1.938035e-01 +3.739549e-01 +8.061965e-01 -3.739549e-01 +8.061965e-01 -3.739549e-01 +1.938035e-01 +3.739549e-01
7.442729e+08 +2.028785e-01 +3.802987e-01 +7.971215e-01 -3.802987e-01 +7.971215e-01 -3.802987e-01 +2.028785e-01 +3.802987e-01
7.498942e+08 +2.054681e-01 +3.820501e-01 +7.945319e-01 -3.820501e-01 +7.945319e-01 -3.820501e-01 +2.054681e-01 +3.820501e-01
7.653571e+08 +2.126301e-01 +3.867622e-01 +7.873699e-01 -3.867622e-01 +7.873699e-01 -3.867622e-01 +2.126301e-01 +3.867622e-01
7.762471e+08 +2.177062e-01 +3.899880e-01 +7.822938e-01 -3.899880e-01 +7.822938e-01 -3.899880e-01 +2.177062e-01 +3.899880e-01
7.870386e+08 +2.227612e-01 +3.931088e-01 +7.772388e-01 -3.931088e-01 +7.772388e-01 -3.931088e-01 +2.227612e-01 +3.931088e-01
8.035261e+08 +2.305290e-01 +3.977316e-01 +7.694710e-01 -3.977316e-01 +7.694710e-01 -3.977316e-01 +2.305290e-01 +3.977316e-01
8.093343e+08 +2.332774e-01 +3.993183e-01 +7.667226e-01 -3.993183e-01 +7.667226e-01 -3.993183e-01 +2.332774e-01 +3.993183e-01
8.317638e+08 +2.439456e-01 +4.052416e-01 +7.560544e-01 -4.052416e-01 +7.560544e-01 -4.052416e-01 +2.439456e-01 +4.052416e-01
8.322616e+08 +2.441833e-01 +4.053694e-01 +7.558167e-01 -4.053694e-01 +7.558167e-01 -4.053694e-01 +2.441833e-01 +4.053694e-01
8.558384e+08 +2.554822e-01 +4.112398e-01 +7.445178e-01 -4.112398e-01 +7.445178e-01 -4.112398e-01 +2.554822e-01 +4.112398e-01
8.609938e+08 +2.579629e-01 +4.124761e-01 +7.420371e-01 -4.124761e-01 +7.420371e-01 -4.124761e-01 +2.579629e-01 +4.124761e-01
8.800831e+08 +2.671765e-01 +4.169065e-01 +7.328235e-01 -4.169065e-01 +7.328235e-01 -4.169065e-01 +2.671765e-01 +4.169065e-01
8.912509e+08 +2.725852e-01 +4.193912e-01 +7.274148e-01 -4.193912e-01 +7.274148e-01 -4.193912e-01 +2.725852e-01 +4.193912e-01
9.050146e+08 +2.792675e-01 +4.223451e-01 +7.207325e-01 -4.223451e-01 +7.207325e-01 -4.223451e-01 +2.792675e-01 +4.223451e-01
9.225714e+08 +2.878139e-01 +4.259405e-01 +7.121861e-01 -4.259405e-01 +7.121861e-01 -4.259405e-01 +2.878139e-01 +4.259405e-01
9.306524e+08 +2.917548e-01 +4.275307e-01 +7.082452e-01 -4.275307e-01 +7.082452e-01 -4.275307e-01 +2.917548e-01 +4.275307e-01
9.549926e+08 +3.036469e-01 +4.320760e-01 +6.963531e-01 -4.320760e-01 +6.963531e-01 -4.320760e-01 +3.036469e-01 +4.320760e-01
9.570165e+08 +3.046369e-01 +4.324375e-01 +6.953631e-01 -4.324375e-01 +6.953631e-01 -4.324375e-01 +3.046369e-01 +4.324375e-01
9.841274e+08 +3.179104e-01 +4.370388e-01 +6.820896e-01 -4.370388e-01 +6.820896e-01 -4.370388e-01 +3.179104e-01 +4.370388e-01
9.885531e+08 +3.200787e-01 +4.377476e-01 +6.799213e-01 -4.377476e-01 +6.799213e-01 -4.377476e-01 +3.200787e-01 +4.377476e-01
1.012006e+09 +3.315705e-01 +4.413076e-01 +6.684295e-01 -4.413076e-01 +6.684295e-01 -4.413076e-01 +3.315705e-01 +4.413076e-01
1.023293e+09 +3.370998e-01 +4.429040e-01 +6.629002e-01 -4.429040e-01 +6.629002e-01 -4.429040e-01 +3.370998e-01 +4.429040e-01
1.040675e+09 +3.456104e-01 +4.452159e-01 +6.543896e-01 -4.452159e-01 +6.543896e-01 -4.452159e-01 +3.456104e-01 +4.452159e-01
1.059254e+09 +3.546966e-01 +4.474923e-01 +6.453034e-01 -4.474923e-01 +6.453034e-01 -4.474923e-01 +3.546966e-01 +4.474923e-01
1.070156e+09 +3.600216e-01 +4.487356e-01 +6.399784e-01 -4.487356e-01 +6.399784e-01 -4.487356e-01 +3.600216e-01 +4.487356e-01
1.096478e+09 +3.728510e-01 +4.514591e-01 +6.271490e-01 -4.514591e-01 +6.271490e-01 -4.514591e-01 +3.728510e-01 +4.514591e-01
1.100472e+09 +3.747936e-01 +4.518383e-01 +6.252064e-01 -4.518383e-01 +6.252064e-01 -4.518383e-01 +3.747936e-01 +4.518383e-01
1.131647e+09 +3.899136e-01 +4.544953e-01 +6.100864e-01 -4.544953e-01 +6.100864e-01 -4.544953e-01 +3.899136e-01 +4.544953e-01
1.135011e+09 +3.915401e-01 +4.547503e-01 +6.084599e-01 -4.547503e-01 +6.084599e-01 -4.547503e-01 +3.915401e-01 +4.547503e-01
1.163705e+09 +4.053671e-01 +4.566780e-01 +5.946329e-01 -4.566780e-01 +5.946329e-01 -4.566780e-01 +4.053671e-01 +4.566780e-01
1.174898e+09 +4.107362e-01 +4.573118e-01 +5.892638e-01 -4.573118e-01 +5.892638e-01 -4.573118e-01 +4.107362e-01 +4.573118e-01
1.196671e+09 +4.211371e-01 +4.583581e-01 +5.788629e-01 -4.583581e-01 +5.788629e-01 -4.583581e-01 +4.211371e-01 +4.583581e-01
1.216186e+09 +4.304064e-01 +4.590900e-01 +5.695936e-01 -4.590900e-01 +5.695936e-01 -4.590900e-01 +4.304064e-01 +4.590900e-01
1.230571e+09 +4.372045e-01 +4.595073e-01 +5.627955e-01 -4.595073e-01 +5.627955e-01 -4.595073e-01 +4.372045e-01 +4.595073e-01
1.258925e+09 +4.505127e-01 +4.600323e-01 +5.494873e-01 -4.600323e-01 +5.494873e-01 -4.600323e-01 +4.505127e-01 +4.600323e-01
1.265431e+09 +4.535480e-01 +4.600981e-01 +5.464520e-01 -4.600981e-01 +5.464520e-01 -4.600981e-01 +4.535480e-01 +4.600981e-01
1.301279e+09 +4.701440e-01 +4.601037e-01 +5.298560e-01 -4.601037e-01 +5.298560e-01 -4.601037e-01 +4.701440e-01 +4.601037e-01
1.303167e+09 +4.710116e-01 +4.600875e-01 +5.289884e-01 -4.600875e-01 +5.289884e-01 -4.600875e-01 +4.710116e-01 +4.600875e-01
1.338142e+09 +4.869665e-01 +4.594982e-01 +5.130335e-01 -4.594982e-01 +5.130335e-01 -4.594982e-01 +4.869665e-01 +4.594982e-01
1.348963e+09 +4.918546e-01 +4.592066e-01 +5.081454e-01 -4.592066e-01 +5.081454e-01 -4.592066e-01 +4.918546e-01 +4.592066e-01
1.376050e+09 +5.039875e-01 +4.582568e-01 +4.960125e-01 -4.582568e-01 +4.960125e-01 -4.582568e-01 +5.039875e-01 +4.582568e-01
1.396368e+09 +5.129879e-01 +4.573431e-01 +4.870121e-01 -4.573431e-01 +4.870121e-01 -4.573431e-01 +5.129879e-01 +4.573431e-01
1.415032e+09 +5.211768e-01 +4.563560e-01 +4.788232e-01 -4.563560e-01 +4.788232e-01 -4.563560e-01 +5.211768e-01 +4.563560e-01
1.445440e+09 +5.343527e-01 +4.544538e-01 +4.656473e-01 -4.544538e-01 +4.656473e-01 -4.544538e-01 +5.343527e-01 +4.544538e-01
1.455118e+09 +5.385019e-01 +4.537739e-01 +4.614981e-01 -4.537739e-01 +4.614981e-01 -4.537739e-01 +5.385019e-01 +4.537739e-01
1.496236e+09 +5.558852e-01 +4.504993e-01 +4.441148e-01 -4.504993e-01 +4.441148e-01 -4.504993e-01 +5.558852e-01 +4.504993e-01
1.496339e+09 +5.559284e-01 +4.504903e-01 +4.440716e-01 -4.504903e-01 +4.440716e-01 -4.504903e-01 +5.559284e-01 +4.504903e-01
1.538728e+09 +5.734201e-01 +4.464869e-01 +4.265799e-01 -4.464869e-01 +4.265799e-01 -4.464869e-01 +5.734201e-01 +4.464869e-01
1.548817e+09 +5.775174e-01 +4.454447e-01 +4.224826e-01 -4.454447e-01 +4.224826e-01 -4.454447e-01 +5.775174e-01 +4.454447e-01
1.582318e+09 +5.909388e-01 +4.417476e-01 +4.090612e-01 -4.417476e-01 +4.090612e-01 -4.417476e-01 +5.909388e-01 +4.417476e-01
1.603245e+09 +5.991767e-01 +4.392600e-01 +4.008233e-01 -4.392600e-01 +4.008233e-01 -4.392600e-01 +5.991767e-01 +4.392600e-01
1.627143e+09 +6.084448e-01 +4.362585e-01 +3.915552e-01 -4.362585e-01 +3.915552e-01 -4.362585e-01 +6.084448e-01 +4.362585e-01
1.659587e+09 +6.207873e-01 +4.319205e-01 +3.792127e-01 -4.319205e-01 +3.792127e-01 -4.319205e-01 +6.207873e-01 +4.319205e-01
1.673238e+09 +6.258970e-01 +4.300081e-01 +3.741030e-01 -4.300081e-01 +3.741030e-01 -4.300081e-01 +6.258970e-01 +4.300081e-01
1.717908e+09 +6.422696e-01 +4.234074e-01 +3.577304e-01 -4.234074e-01 +3.577304e-01 -4.234074e-01 +6.422696e-01 +4.234074e-01
1.720638e+09 +6.432527e-01 +4.229876e-01 +3.567473e-01 -4.229876e-01 +3.567473e-01 -4.229876e-01 +6.432527e-01 +4.229876e-01
1.769381e+09 +6.604686e-01 +4.151909e-01 +3.395314e-01 -4.151909e-01 +3.395314e-01 -4.151909e-01 +6.604686e-01 +4.151909e-01
1.778279e+09 +6.635418e-01 +4.137083e-01 +3.364582e-01 -4.137083e-01 +3.364582e-01 -4.137083e-01 +6.635418e-01 +4.137083e-01
1.819506e+09 +6.775000e-01 +4.066146e-01 +3.225000e-01 -4.066146e-01 +3.225000e-01 -4.066146e-01 +6.775000e-01 +4.066146e-01
1.840772e+09 +6.845198e-01 +4.028173e-01 +3.154802e-01 -4.028173e-01 +3.154802e-01 -4.028173e-01 +6.845198e-01 +4.028173e-01
1.871050e+09 +6.943020e-01 +3.972584e-01 +3.056980e-01 -3.972584e-01 +3.056980e-01 -3.972584e-01 +6.943020e-01 +3.972584e-01
1.905461e+09 +7.051181e-01 +3.907352e-01 +2.948819e-01 -3.907352e-01 +2.948819e-01 -3.907352e-01 +7.051181e-01 +3.907352e-01
1.924054e+09 +7.108290e-01 +3.871248e-01 +2.891710e-01 -3.871248e-01 +2.891710e-01 -3.871248e-01 +7.108290e-01 +3.871248e-01
1.972423e+09 +7.252504e-01 +3.774702e-01 +2.747496e-01 -3.774702e-01 +2.747496e-01 -3.774702e-01 +7.252504e-01 +3.774702e-01
1.978560e+09 +7.270354e-01 +3.762196e-01 +2.729646e-01 -3.762196e-01 +2.729646e-01 -3.762196e-01 +7.270354e-01 +3.762196e-01
2.034609e+09 +7.428754e-01 +3.645514e-01 +2.571246e-01 -3.645514e-01 +2.571246e-01 -3.645514e-01 +7.428754e-01 +3.645514e-01
2.041738e+09 +7.448306e-01 +3.630373e-01 +2.551694e-01 -3.630373e-01 +2.551694e-01 -3.630373e-01 +7.448306e-01 +3.630373e-01
2.092247e+09 +7.583038e-01 +3.521320e-01 +2.416962e-01 -3.521320e-01 +2.416962e-01 -3.521320e-01 +7.583038e-01 +3.521320e-01
2.113489e+09 +7.637729e-01 +3.474589e-01 +2.362271e-01 -3.474589e-01 +2.362271e-01 -3.474589e-01 +7.637729e-01 +3.474589e-01
2.151517e+09 +7.732758e-01 +3.389763e-01 +2.267242e-01 -3.389763e-01 +2.267242e-01 -3.389763e-01 +7.732758e-01 +3.389763e-01
2.187762e+09 +7.819930e-01 +3.307642e-01 +2.180070e-01 -3.307642e-01 +2.180070e-01 -3.307642e-01 +7.819930e-01 +3.307642e-01
2.212467e+09 +7.877473e-01 +3.251019e-01 +2.122527e-01 -3.251019e-01 +2.122527e-01 -3.251019e-01 +7.877473e-01 +3.251019e-01
2.264644e+09 +7.994086e-01 +3.129896e-01 +2.005914e-01 -3.129896e-01 +2.005914e-01 -3.129896e-01 +7.994086e-01 +3.129896e-01
2.275143e+09 +8.016754e-01 +3.105296e-01 +1.983246e-01 -3.105296e-01 +1.983246e-01 -3.105296e-01 +8.016754e-01 +3.105296e-01
2.339594e+09 +8.150181e-01 +2.952832e-01 +1.849819e-01 -2.952832e-01 +1.849819e-01 -2.952832e-01 +8.150181e-01 +2.952832e-01
2.344229e+09 +8.159400e-01 +2.941782e-01 +1.840600e-01 -2.941782e-01 +1.840600e-01 -2.941782e-01 +8.159400e-01 +2.941782e-01
2.405872e+09 +8.277352e-01 +2.793888e-01 +1.722648e-01 -2.793888e-01 +1.722648e-01 -2.793888e-01 +8.277352e-01 +2.793888e-01
2.426610e+09 +8.315109e-01 +2.743796e-01 +1.684891e-01 -2.743796e-01 +1.684891e-01 -2.743796e-01 +8.315109e-01 +2.743796e-01
2.474027e+09 +8.397879e-01 +2.628755e-01 +1.602121e-01 -2.628755e-01 +1.602121e-01 -2.628755e-01 +8.397879e-01 +2.628755e-01
2.511886e+09 +8.460485e-01 +2.536494e-01 +1.539515e-01 -2.536494e-01 +1.539515e-01 -2.536494e-01 +8.460485e-01 +2.536494e-01
2.544113e+09 +8.511393e-01 +2.457749e-01 +1.488607e-01 -2.457749e-01 +1.488607e-01 -2.457749e-01 +8.511393e-01 +2.457749e-01
2.600160e+09 +8.594846e-01 +2.320492e-01 +1.405154e-01 -2.320492e-01 +1.405154e-01 -2.320492e-01 +8.594846e-01 +2.320492e-01
2.616184e+09 +8.617544e-01 +2.281208e-01 +1.382456e-01 -2.281208e-01 +1.382456e-01 -2.281208e-01 +8.617544e-01 +2.281208e-01
2.690297e+09 +8.716004e-01 +2.099493e-01 +1.283996e-01 -2.099493e-01 +1.283996e-01 -2.099493e-01 +8.716004e-01 +2.099493e-01
2.691535e+09 +8.717560e-01 +2.096459e-01 +1.282440e-01 -2.096459e-01 +1.282440e-01 -2.096459e-01 +8.717560e-01 +2.096459e-01
2.766509e+09 +8.806468e-01 +1.912987e-01 +1.193532e-01 -1.912987e-01 +1.193532e-01 -1.912987e-01 +8.806468e-01 +1.912987e-01
2.786121e+09 +8.828044e-01 +1.865111e-01 +1.171956e-01 -1.865111e-01 +1.171956e-01 -1.865111e-01 +8.828044e-01 +1.865111e-01
2.844880e+09 +8.888654e-01 +1.722089e-01 +1.111346e-01 -1.722089e-01 +1.111346e-01 -1.722089e-01 +8.888654e-01 +1.722089e-01
2.884032e+09 +8.925773e-01 +1.627211e-01 +1.074227e-01 -1.627211e-01 +1.074227e-01 -1.627211e-01 +8.925773e-01 +1.627211e-01
2.925472e+09 +8.962308e-01 +1.527218e-01 +1.037692e-01 -1.527218e-01 +1.037692e-01 -1.527218e-01 +8.962308e-01 +1.527218e-01
2.985383e+09 +9.010282e-01 +1.383559e-01 +9.897175e-02 -1.383559e-01 +9.897175e-02 -1.383559e-01 +9.010282e-01 +1.383559e-01
3.008346e+09 +9.027198e-01 +1.328808e-01 +9.728024e-02 -1.328808e-01 +9.728024e-02 -1.328808e-01 +9.027198e-01 +1.328808e-01
3.090295e+09 +9.081169e-01 +1.134991e-01 +9.188315e-02 -1.134991e-01 +9.188315e-02 -1.134991e-01 +9.081169e-01 +1.134991e-01
3.093568e+09 +9.083122e-01 +1.127305e-01 +9.168780e-02 -1.127305e-01 +9.168780e-02 -1.127305e-01 +9.083122e-01 +1.127305e-01
3.181205e+09 +9.129906e-01 +9.231684e-02 +8.700941e-02 -9.231684e-02 +8.700941e-02 -9.231684e-02 +9.129906e-01 +9.231684e-02
3.198895e+09 +9.138093e-01 +8.823713e-02 +8.619073e-02 -8.823713e-02 +8.619073e-02 -8.823713e-02 +9.138093e-01 +8.823713e-02
3.271324e+09 +9.167403e-01 +7.168670e-02 +8.325970e-02 -7.168670e-02 +8.325970e-02 -7.168670e-02 +9.167403e-01 +7.168670e-02
3.311311e+09 +9.180783e-01 +6.265865e-02 +8.192172e-02 -6.265865e-02 +8.192172e-02 -6.265865e-02 +9.180783e-01 +6.265865e-02
3.363996e+09 +9.195496e-01 +5.088781e-02 +8.045042e-02 -5.088781e-02 +8.045042e-02 -5.088781e-02 +9.195496e-01 +5.088781e-02
3.427678e+09 +9.209034e-01 +3.685428e-02 +7.909657e-02 -3.685428e-02 +7.909657e-02 -3.685428e-02 +9.209034e-01 +3.685428e-02
3.459293e+09 +9.214096e-01 +2.996852e-02 +7.859038e-02 -2.996852e-02 +7.859038e-02 -2.996852e-02 +9.214096e-01 +2.996852e-02
3.548134e+09 +9.222712e-01 +1.091590e-02 +7.772883e-02 -1.091590e-02 +7.772883e-02 -1.091590e-02 +9.222712e-01 +1.091590e-02
3.557290e+09 +9.223146e-01 +8.977635e-03 +7.768544e-02 -8.977635e-03 +7.768544e-02 -8.977635e-03 +9.223146e-01 +8.977635e-03
3.658063e+09 +9.222615e-01 -1.203578e-02 +7.773846e-02 +1.203578e-02 +7.773846e-02 +1.203578e-02 +9.222615e-01 -1.203578e-02
3.672823e+09 +9.221749e-01 -1.506384e-02 +7.782514e-02 +1.506384e-02 +7.782514e-02 +1.506384e-02 +9.221749e-01 -1.506384e-02
3.761691e+09 +9.212507e-01 -3.302256e-02 +7.874934e-02 +3.302256e-02 +7.874934e-02 +3.302256e-02 +9.212507e-01 -3.302256e-02
3.801894e+09 +9.206149e-01 -4.099205e-02 +7.938512e-02 +4.099205e-02 +7.938512e-02 +4.099205e-02 +9.206149e-01 -4.099205e-02
3.868254e+09 +9.192850e-01 -5.393366e-02 +8.071498e-02 +5.393366e-02 +8.071498e-02 +5.393366e-02 +9.192850e-01 -5.393366e-02
3.935501e+09 +9.175986e-01 -6.677613e-02 +8.240143e-02 +6.677613e-02 +8.240143e-02 +6.677613e-02 +9.175986e-01 -6.677613e-02
3.977836e+09 +9.163707e-01 -7.472028e-02 +8.362930e-02 +7.472028e-02 +8.362930e-02 +7.472028e-02 +9.163707e-01 -7.472028e-02
4.073803e+09 +9.131402e-01 -9.232431e-02 +8.685981e-02 +9.232431e-02 +8.685981e-02 +9.232431e-02 +9.131402e-01 -9.232431e-02
4.090523e+09 +9.125168e-01 -9.533413e-02 +8.748325e-02 +9.533413e-02 +8.748325e-02 +9.533413e-02 +9.125168e-01 -9.533413e-02
4.206402e+09 +9.077351e-01 -1.157275e-01 +9.226488e-02 +1.157275e-01 +9.226488e-02 +1.157275e-01 +9.077351e-01 -1.157275e-01
4.216965e+09 +9.072609e-01 -1.175462e-01 +9.273910e-02 +1.175462e-01 +9.273910e-02 +1.175462e-01 +9.072609e-01 -1.175462e-01
4.325563e+09 +9.020407e-01 -1.358536e-01 +9.795932e-02 +1.358536e-01 +9.795932e-02 +1.358536e-01 +9.020407e-01 -1.358536e-01
4.365158e+09 +8.999886e-01 -1.423531e-01 +1.000114e-01 +1.423531e-01 +1.000114e-01 +1.423531e-01 +8.999886e-01 -1.423531e-01
4.448100e+09 +8.954511e-01 -1.556666e-01 +1.045489e-01 +1.556666e-01 +1.045489e-01 +1.556666e-01 +8.954511e-01 -1.556666e-01
4.518559e+09 +8.913579e-01 -1.666591e-01 +1.086421e-01 +1.666591e-01 +1.086421e-01 +1.666591e-01 +8.913579e-01 -1.666591e-01
4.574109e+09 +8.879869e-01 -1.751219e-01 +1.120131e-01 +1.751219e-01 +1.120131e-01 +1.751219e-01 +8.879869e-01 -1.751219e-01
4.677351e+09 +8.814098e-01 -1.903808e-01 +1.185902e-01 +1.903808e-01 +1.185902e-01 +1.903808e-01 +8.814098e-01 -1.903808e-01
4.703687e+09 +8.796712e-01 -1.941763e-01 +1.203288e-01 +1.941763e-01 +1.203288e-01 +1.941763e-01 +8.796712e-01 -1.941763e-01
4.836935e+09 +8.705299e-01 -2.127879e-01 +1.294701e-01 +2.127879e-01 +1.294701e-01 +2.127879e-01 +8.705299e-01 -2.127879e-01
4.841724e+09 +8.701913e-01 -2.134385e-01 +1.298087e-01 +2.134385e-01 +1.298087e-01 +2.134385e-01 +8.701913e-01 -2.134385e-01
4.973959e+09 +8.605912e-01 -2.309170e-01 +1.394088e-01 +2.309170e-01 +1.394088e-01 +2.309170e-01 +8.605912e-01 -2.309170e-01
5.011872e+09 +8.577558e-01 -2.357566e-01 +1.422442e-01 +2.357566e-01 +1.422442e-01 +2.357566e-01 +8.577558e-01 -2.357566e-01
5.114864e+09 +8.498859e-01 -2.485255e-01 +1.501141e-01 +2.485255e-01 +1.501141e-01 +2.485255e-01 +8.498859e-01 -2.485255e-01
5.188000e+09 +8.441617e-01 -2.572636e-01 +1.558383e-01 +2.572636e-01 +1.558383e-01 +2.572636e-01 +8.441617e-01 -2.572636e-01
5.259761e+09 +8.384469e-01 -2.655773e-01 +1.615531e-01 +2.655773e-01 +1.615531e-01 +2.655773e-01 +8.384469e-01 -2.655773e-01
5.370318e+09 +8.294732e-01 -2.778932e-01 +1.705268e-01 +2.778932e-01 +1.705268e-01 +2.778932e-01 +8.294732e-01 -2.778932e-01
5.408763e+09 +8.263095e-01 -2.820388e-01 +1.736905e-01 +2.820388e-01 +1.736905e-01 +2.820388e-01 +8.263095e-01 -2.820388e-01
5.559043e+09 +8.137589e-01 -2.975846e-01 +1.862411e-01 +2.975846e-01 +1.862411e-01 +2.975846e-01 +8.137589e-01 -2.975846e-01
5.561986e+09 +8.135105e-01 -2.978787e-01 +1.864895e-01 +2.978787e-01 +1.864895e-01 +2.978787e-01 +8.135105e-01 -2.978787e-01
5.719549e+09 +8.000891e-01 -3.130681e-01 +1.999109e-01 +3.130681e-01 +1.999109e-01 +3.130681e-01 +8.000891e-01 -3.130681e-01
5.754399e+09 +7.970919e-01 -3.162825e-01 +2.029081e-01 +3.162825e-01 +2.029081e-01 +3.162825e-01 +7.970919e-01 -3.162825e-01
5.881576e+09 +7.860856e-01 -3.275808e-01 +2.139144e-01 +3.275808e-01 +2.139144e-01 +3.275808e-01 +7.860856e-01 -3.275808e-01
5.956621e+09 +7.795490e-01 -3.339381e-01 +2.204510e-01 +3.339381e-01 +2.204510e-01 +3.339381e-01 +7.795490e-01 -3.339381e-01
6.048192e+09 +7.715420e-01 -3.413935e-01 +2.284580e-01 +3.413935e-01 +2.284580e-01 +3.413935e-01 +7.715420e-01 -3.413935e-01
6.165950e+09 +7.612103e-01 -3.505089e-01 +2.387897e-01 +3.505089e-01 +2.387897e-01 +3.505089e-01 +7.612103e-01 -3.505089e-01
6.219529e+09 +7.565014e-01 -3.544856e-01 +2.434986e-01 +3.544856e-01 +2.434986e-01 +3.544856e-01 +7.565014e-01 -3.544856e-01
6.382635e+09 +7.421582e-01 -3.659593e-01 +2.578418e-01 +3.659593e-01 +2.578418e-01 +3.659593e-01 +7.421582e-01 -3.659593e-01
6.395720e+09 +7.410080e-01 -3.668396e-01 +2.589920e-01 +3.668396e-01 +2.589920e-01 +3.668396e-01 +7.410080e-01 -3.668396e-01
6.576901e+09 +7.251066e-01 -3.784409e-01 +2.748934e-01 +3.784409e-01 +2.748934e-01 +3.784409e-01 +7.251066e-01 -3.784409e-01
6.606934e+09 +7.224775e-01 -3.802607e-01 +2.775225e-01 +3.802607e-01 +2.775225e-01 +3.802607e-01 +7.224775e-01 -3.802607e-01
6.763216e+09 +7.088425e-01 -3.892778e-01 +2.911575e-01 +3.892778e-01 +2.911575e-01 +3.892778e-01 +7.088425e-01 -3.892778e-01
6.839116e+09 +7.022538e-01 -3.933916e-01 +2.977462e-01 +3.933916e-01 +2.977462e-01 +3.933916e-01 +7.022538e-01 -3.933916e-01
6.954808e+09 +6.922616e-01 -3.993421e-01 +3.077384e-01 +3.993421e-01 +3.077384e-01 +3.993421e-01 +6.922616e-01 -3.993421e-01
7.079458e+09 +6.815736e-01 -4.053375e-01 +3.184264e-01 +4.053375e-01 +3.184264e-01 +4.053375e-01 +6.815736e-01 -4.053375e-01
7.151828e+09 +6.754094e-01 -4.086281e-01 +3.245906e-01 +4.086281e-01 +3.245906e-01 +4.086281e-01 +6.754094e-01 -4.086281e-01
7.328245e+09 +6.605230e-01 -4.160912e-01 +3.394770e-01 +4.160912e-01 +3.394770e-01 +4.160912e-01 +6.605230e-01 -4.160912e-01
7.354429e+09 +6.583315e-01 -4.171337e-01 +3.416685e-01 +4.171337e-01 +3.416685e-01 +4.171337e-01 +6.583315e-01 -4.171337e-01
7.562770e+09 +6.410730e-01 -4.248594e-01 +3.589270e-01 +4.248594e-01 +3.589270e-01 +4.248594e-01 +6.410730e-01 -4.248594e-01
7.585776e+09 +6.391875e-01 -4.256525e-01 +3.608125e-01 +4.256525e-01 +3.608125e-01 +4.256525e-01 +6.391875e-01 -4.256525e-01
7.777012e+09 +6.236783e-01 -4.318086e-01 +3.763217e-01 +4.318086e-01 +3.763217e-01 +4.318086e-01 +6.236783e-01 -4.318086e-01
7.852356e+09 +6.176510e-01 -4.340280e-01 +3.823490e-01 +4.340280e-01 +3.823490e-01 +4.340280e-01 +6.176510e-01 -4.340280e-01
7.997324e+09 +6.061908e-01 -4.379879e-01 +3.938092e-01 +4.379879e-01 +3.938092e-01 +4.379879e-01 +6.061908e-01 -4.379879e-01
8.128305e+09 +5.959952e-01 -4.412308e-01 +4.040048e-01 +4.412308e-01 +4.040048e-01 +4.412308e-01 +5.959952e-01 -4.412308e-01
8.223877e+09 +5.886531e-01 -4.434062e-01 +4.113469e-01 +4.434062e-01 +4.113469e-01 +4.434062e-01 +5.886531e-01 -4.434062e-01
8.413951e+09 +5.742994e-01 -4.472804e-01 +4.257006e-01 +4.472804e-01 +4.257006e-01 +4.472804e-01 +5.742994e-01 -4.472804e-01
8.456848e+09 +5.711062e-01 -4.480751e-01 +4.288938e-01 +4.480751e-01 +4.288938e-01 +4.480751e-01 +5.711062e-01 -4.480751e-01
8.696419e+09 +5.535898e-01 -4.520088e-01 +4.464102e-01 +4.520088e-01 +4.464102e-01 +4.520088e-01 +5.535898e-01 -4.520088e-01
8.709636e+09 +5.526391e-01 -4.522019e-01 +4.473609e-01 +4.522019e-01 +4.473609e-01 +4.522019e-01 +5.526391e-01 -4.522019e-01
8.942776e+09 +5.361418e-01 -4.552237e-01 +4.638582e-01 +4.552237e-01 +4.638582e-01 +4.552237e-01 +5.361418e-01 -4.552237e-01
9.015711e+09 +5.310865e-01 -4.560262e-01 +4.689135e-01 +4.560262e-01 +4.689135e-01 +4.560262e-01 +5.310865e-01 -4.560262e-01
9.196112e+09 +5.187985e-01 -4.577381e-01 +4.812015e-01 +4.577381e-01 +4.812015e-01 +4.577381e-01 +5.187985e-01 -4.577381e-01
9.332543e+09 +5.097093e-01 -4.587885e-01 +4.902907e-01 +4.587885e-01 +4.902907e-01 +4.587885e-01 +5.097093e-01 -4.587885e-01
9.456625e+09 +5.015941e-01 -4.595724e-01 +4.984059e-01 +4.595724e-01 +4.984059e-01 +4.595724e-01 +5.015941e-01 -4.595724e-01
9.660509e+09 +4.885706e-01 -4.605288e-01 +5.114294e-01 +4.605288e-01 +5.114294e-01 +4.605288e-01 +4.885706e-01 -4.605288e-01
9.724518e+09 +4.845609e-01 -4.607487e-01 +5.154391e-01 +4.607487e-01 +5.154391e-01 +4.607487e-01 +4.845609e-01 -4.607487e-01
1.000000e+10 +4.677290e-01 -4.612906e-01 +5.322710e-01 +4.612906e-01 +5.322710e-01 +4.612906e-01 +4.677290e-01 -4.612906e-01
