! Touchstone 2-port S-parameters  (series-through model)
! Part: Murata_GRM188R71C104KA01_100nF_16V_X7R_0603
! Generated: 2026-06-14 12:10 UTC  by s2p tool
! Reference impedance: 50.0 Ohm
! ESL estimated from SRF: 0.989 nH (SRF=16.0 MHz) [PHYSICS ESTIMATE]
! ESTIMATED / behavioral model - NOT manufacturer-measured data.
# Hz S RI R 50
! freq        ReS11      ImS11      ReS21      ImS21      ReS12      ImS12      ReS22      ImS22
1.000000e+04 +7.169382e-01 -4.504391e-01 +2.830618e-01 +4.504391e-01 +2.830618e-01 +4.504391e-01 +7.169382e-01 -4.504391e-01
1.035142e+04 +7.027131e-01 -4.570151e-01 +2.972869e-01 +4.570151e-01 +2.972869e-01 +4.570151e-01 +7.027131e-01 -4.570151e-01
1.071519e+04 +6.880842e-01 -4.632252e-01 +3.119158e-01 +4.632252e-01 +3.119158e-01 +4.632252e-01 +6.880842e-01 -4.632252e-01
1.109175e+04 +6.730705e-01 -4.690390e-01 +3.269295e-01 +4.690390e-01 +3.269295e-01 +4.690390e-01 +6.730705e-01 -4.690390e-01
1.148154e+04 +6.576936e-01 -4.744274e-01 +3.423064e-01 +4.744274e-01 +3.423064e-01 +4.744274e-01 +6.576936e-01 -4.744274e-01
1.188502e+04 +6.419783e-01 -4.793626e-01 +3.580217e-01 +4.793626e-01 +3.580217e-01 +4.793626e-01 +6.419783e-01 -4.793626e-01
1.230269e+04 +6.259519e-01 -4.838182e-01 +3.740481e-01 +4.838182e-01 +3.740481e-01 +4.838182e-01 +6.259519e-01 -4.838182e-01
1.273503e+04 +6.096445e-01 -4.877700e-01 +3.903555e-01 +4.877700e-01 +3.903555e-01 +4.877700e-01 +6.096445e-01 -4.877700e-01
1.318257e+04 +5.930883e-01 -4.911960e-01 +4.069117e-01 +4.911960e-01 +4.069117e-01 +4.911960e-01 +5.930883e-01 -4.911960e-01
1.364583e+04 +5.763181e-01 -4.940769e-01 +4.236819e-01 +4.940769e-01 +4.236819e-01 +4.940769e-01 +5.763181e-01 -4.940769e-01
1.412538e+04 +5.593704e-01 -4.963961e-01 +4.406296e-01 +4.963961e-01 +4.406296e-01 +4.963961e-01 +5.593704e-01 -4.963961e-01
1.462177e+04 +5.422833e-01 -4.981400e-01 +4.577167e-01 +4.981400e-01 +4.577167e-01 +4.981400e-01 +5.422833e-01 -4.981400e-01
1.513561e+04 +5.250962e-01 -4.992985e-01 +4.749038e-01 +4.992985e-01 +4.749038e-01 +4.992985e-01 +5.250962e-01 -4.992985e-01
1.566751e+04 +5.078497e-01 -4.998646e-01 +4.921503e-01 +4.998646e-01 +4.921503e-01 +4.998646e-01 +5.078497e-01 -4.998646e-01
1.621810e+04 +4.905846e-01 -4.998349e-01 +5.094154e-01 +4.998349e-01 +5.094154e-01 +4.998349e-01 +4.905846e-01 -4.998349e-01
1.678804e+04 +4.733422e-01 -4.992097e-01 +5.266578e-01 +4.992097e-01 +5.266578e-01 +4.992097e-01 +4.733422e-01 -4.992097e-01
1.737801e+04 +4.561633e-01 -4.979927e-01 +5.438367e-01 +4.979927e-01 +5.438367e-01 +4.979927e-01 +4.561633e-01 -4.979927e-01
1.798871e+04 +4.390882e-01 -4.961911e-01 +5.609118e-01 +4.961911e-01 +5.609118e-01 +4.961911e-01 +4.390882e-01 -4.961911e-01
1.862087e+04 +4.221564e-01 -4.938155e-01 +5.778436e-01 +4.938155e-01 +5.778436e-01 +4.938155e-01 +4.221564e-01 -4.938155e-01
1.927525e+04 +4.054059e-01 -4.908796e-01 +5.945941e-01 +4.908796e-01 +5.945941e-01 +4.908796e-01 +4.054059e-01 -4.908796e-01
1.995262e+04 +3.888729e-01 -4.874004e-01 +6.111271e-01 +4.874004e-01 +6.111271e-01 +4.874004e-01 +3.888729e-01 -4.874004e-01
2.065380e+04 +3.725920e-01 -4.833974e-01 +6.274080e-01 +4.833974e-01 +6.274080e-01 +4.833974e-01 +3.725920e-01 -4.833974e-01
2.137962e+04 +3.565952e-01 -4.788931e-01 +6.434048e-01 +4.788931e-01 +6.434048e-01 +4.788931e-01 +3.565952e-01 -4.788931e-01
2.213095e+04 +3.409123e-01 -4.739116e-01 +6.590877e-01 +4.739116e-01 +6.590877e-01 +4.739116e-01 +3.409123e-01 -4.739116e-01
2.290868e+04 +3.255704e-01 -4.684796e-01 +6.744296e-01 +4.684796e-01 +6.744296e-01 +4.684796e-01 +3.255704e-01 -4.684796e-01
2.371374e+04 +3.105939e-01 -4.626251e-01 +6.894061e-01 +4.626251e-01 +6.894061e-01 +4.626251e-01 +3.105939e-01 -4.626251e-01
2.454709e+04 +2.960043e-01 -4.563772e-01 +7.039957e-01 +4.563772e-01 +7.039957e-01 +4.563772e-01 +2.960043e-01 -4.563772e-01
2.540973e+04 +2.818202e-01 -4.497665e-01 +7.181798e-01 +4.497665e-01 +7.181798e-01 +4.497665e-01 +2.818202e-01 -4.497665e-01
2.630268e+04 +2.680574e-01 -4.428237e-01 +7.319426e-01 +4.428237e-01 +7.319426e-01 +4.428237e-01 +2.680574e-01 -4.428237e-01
2.722701e+04 +2.547286e-01 -4.355803e-01 +7.452714e-01 +4.355803e-01 +7.452714e-01 +4.355803e-01 +2.547286e-01 -4.355803e-01
2.818383e+04 +2.418440e-01 -4.280675e-01 +7.581560e-01 +4.280675e-01 +7.581560e-01 +4.280675e-01 +2.418440e-01 -4.280675e-01
2.917427e+04 +2.294109e-01 -4.203165e-01 +7.705891e-01 +4.203165e-01 +7.705891e-01 +4.203165e-01 +2.294109e-01 -4.203165e-01
3.019952e+04 +2.174340e-01 -4.123580e-01 +7.825660e-01 +4.123580e-01 +7.825660e-01 +4.123580e-01 +2.174340e-01 -4.123580e-01
3.126079e+04 +2.059158e-01 -4.042220e-01 +7.940842e-01 +4.042220e-01 +7.940842e-01 +4.042220e-01 +2.059158e-01 -4.042220e-01
3.235937e+04 +1.948562e-01 -3.959375e-01 +8.051438e-01 +3.959375e-01 +8.051438e-01 +3.959375e-01 +1.948562e-01 -3.959375e-01
3.349654e+04 +1.842533e-01 -3.875328e-01 +8.157467e-01 +3.875328e-01 +8.157467e-01 +3.875328e-01 +1.842533e-01 -3.875328e-01
3.467369e+04 +1.741029e-01 -3.790346e-01 +8.258971e-01 +3.790346e-01 +8.258971e-01 +3.790346e-01 +1.741029e-01 -3.790346e-01
3.589219e+04 +1.643996e-01 -3.704687e-01 +8.356004e-01 +3.704687e-01 +8.356004e-01 +3.704687e-01 +1.643996e-01 -3.704687e-01
3.715352e+04 +1.551359e-01 -3.618591e-01 +8.448641e-01 +3.618591e-01 +8.448641e-01 +3.618591e-01 +1.551359e-01 -3.618591e-01
3.845918e+04 +1.463033e-01 -3.532288e-01 +8.536967e-01 +3.532288e-01 +8.536967e-01 +3.532288e-01 +1.463033e-01 -3.532288e-01
3.981072e+04 +1.378920e-01 -3.445990e-01 +8.621080e-01 +3.445990e-01 +8.621080e-01 +3.445990e-01 +1.378920e-01 -3.445990e-01
4.120975e+04 +1.298911e-01 -3.359895e-01 +8.701089e-01 +3.359895e-01 +8.701089e-01 +3.359895e-01 +1.298911e-01 -3.359895e-01
4.265795e+04 +1.222892e-01 -3.274186e-01 +8.777108e-01 +3.274186e-01 +8.777108e-01 +3.274186e-01 +1.222892e-01 -3.274186e-01
4.415704e+04 +1.150739e-01 -3.189031e-01 +8.849261e-01 +3.189031e-01 +8.849261e-01 +3.189031e-01 +1.150739e-01 -3.189031e-01
4.570882e+04 +1.082323e-01 -3.104582e-01 +8.917677e-01 +3.104582e-01 +8.917677e-01 +3.104582e-01 +1.082323e-01 -3.104582e-01
4.731513e+04 +1.017512e-01 -3.020980e-01 +8.982488e-01 +3.020980e-01 +8.982488e-01 +3.020980e-01 +1.017512e-01 -3.020980e-01
4.897788e+04 +9.561717e-02 -2.938348e-01 +9.043828e-01 +2.938348e-01 +9.043828e-01 +2.938348e-01 +9.561717e-02 -2.938348e-01
5.069907e+04 +8.981648e-02 -2.856798e-01 +9.101835e-01 +2.856798e-01 +9.101835e-01 +2.856798e-01 +8.981648e-02 -2.856798e-01
5.248075e+04 +8.433543e-02 -2.776430e-01 +9.156646e-01 +2.776430e-01 +9.156646e-01 +2.776430e-01 +8.433543e-02 -2.776430e-01
5.432503e+04 +7.916033e-02 -2.697330e-01 +9.208397e-01 +2.697330e-01 +9.208397e-01 +2.697330e-01 +7.916033e-02 -2.697330e-01
5.623413e+04 +7.427759e-02 -2.619572e-01 +9.257224e-01 +2.619572e-01 +9.257224e-01 +2.619572e-01 +7.427759e-02 -2.619572e-01
5.821032e+04 +6.967381e-02 -2.543223e-01 +9.303262e-01 +2.543223e-01 +9.303262e-01 +2.543223e-01 +6.967381e-02 -2.543223e-01
6.025596e+04 +6.533582e-02 -2.468337e-01 +9.346642e-01 +2.468337e-01 +9.346642e-01 +2.468337e-01 +6.533582e-02 -2.468337e-01
6.237348e+04 +6.125071e-02 -2.394959e-01 +9.387493e-01 +2.394959e-01 +9.387493e-01 +2.394959e-01 +6.125071e-02 -2.394959e-01
6.456542e+04 +5.740592e-02 -2.323125e-01 +9.425941e-01 +2.323125e-01 +9.425941e-01 +2.323125e-01 +5.740592e-02 -2.323125e-01
6.683439e+04 +5.378923e-02 -2.252866e-01 +9.462108e-01 +2.252866e-01 +9.462108e-01 +2.252866e-01 +5.378923e-02 -2.252866e-01
6.918310e+04 +5.038881e-02 -2.184201e-01 +9.496112e-01 +2.184201e-01 +9.496112e-01 +2.184201e-01 +5.038881e-02 -2.184201e-01
7.161434e+04 +4.719324e-02 -2.117148e-01 +9.528068e-01 +2.117148e-01 +9.528068e-01 +2.117148e-01 +4.719324e-02 -2.117148e-01
7.413102e+04 +4.419149e-02 -2.051713e-01 +9.558085e-01 +2.051713e-01 +9.558085e-01 +2.051713e-01 +4.419149e-02 -2.051713e-01
7.673615e+04 +4.137298e-02 -1.987901e-01 +9.586270e-01 +1.987901e-01 +9.586270e-01 +1.987901e-01 +4.137298e-02 -1.987901e-01
7.943282e+04 +3.872757e-02 -1.925710e-01 +9.612724e-01 +1.925710e-01 +9.612724e-01 +1.925710e-01 +3.872757e-02 -1.925710e-01
8.222426e+04 +3.624551e-02 -1.865134e-01 +9.637545e-01 +1.865134e-01 +9.637545e-01 +1.865134e-01 +3.624551e-02 -1.865134e-01
8.511380e+04 +3.391753e-02 -1.806163e-01 +9.660825e-01 +1.806163e-01 +9.660825e-01 +1.806163e-01 +3.391753e-02 -1.806163e-01
8.810489e+04 +3.173477e-02 -1.748784e-01 +9.682652e-01 +1.748784e-01 +9.682652e-01 +1.748784e-01 +3.173477e-02 -1.748784e-01
9.120108e+04 +2.968878e-02 -1.692980e-01 +9.703112e-01 +1.692980e-01 +9.703112e-01 +1.692980e-01 +2.968878e-02 -1.692980e-01
9.440609e+04 +2.777153e-02 -1.638733e-01 +9.722285e-01 +1.638733e-01 +9.722285e-01 +1.638733e-01 +2.777153e-02 -1.638733e-01
9.772372e+04 +2.597540e-02 -1.586020e-01 +9.740246e-01 +1.586020e-01 +9.740246e-01 +1.586020e-01 +2.597540e-02 -1.586020e-01
1.011579e+05 +2.429317e-02 -1.534818e-01 +9.757068e-01 +1.534818e-01 +9.757068e-01 +1.534818e-01 +2.429317e-02 -1.534818e-01
1.047129e+05 +2.271796e-02 -1.485102e-01 +9.772820e-01 +1.485102e-01 +9.772820e-01 +1.485102e-01 +2.271796e-02 -1.485102e-01
1.083927e+05 +2.124329e-02 -1.436845e-01 +9.787567e-01 +1.436845e-01 +9.787567e-01 +1.436845e-01 +2.124329e-02 -1.436845e-01
1.122018e+05 +1.986304e-02 -1.390018e-01 +9.801370e-01 +1.390018e-01 +9.801370e-01 +1.390018e-01 +1.986304e-02 -1.390018e-01
1.161449e+05 +1.857139e-02 -1.344593e-01 +9.814286e-01 +1.344593e-01 +9.814286e-01 +1.344593e-01 +1.857139e-02 -1.344593e-01
1.202264e+05 +1.736288e-02 -1.300540e-01 +9.826371e-01 +1.300540e-01 +9.826371e-01 +1.300540e-01 +1.736288e-02 -1.300540e-01
1.244515e+05 +1.623234e-02 -1.257828e-01 +9.837677e-01 +1.257828e-01 +9.837677e-01 +1.257828e-01 +1.623234e-02 -1.257828e-01
1.288250e+05 +1.517492e-02 -1.216427e-01 +9.848251e-01 +1.216427e-01 +9.848251e-01 +1.216427e-01 +1.517492e-02 -1.216427e-01
1.333521e+05 +1.418602e-02 -1.176305e-01 +9.858140e-01 +1.176305e-01 +9.858140e-01 +1.176305e-01 +1.418602e-02 -1.176305e-01
1.380384e+05 +1.326133e-02 -1.137430e-01 +9.867387e-01 +1.137430e-01 +9.867387e-01 +1.137430e-01 +1.326133e-02 -1.137430e-01
1.428894e+05 +1.239679e-02 -1.099772e-01 +9.876032e-01 +1.099772e-01 +9.876032e-01 +1.099772e-01 +1.239679e-02 -1.099772e-01
1.479108e+05 +1.158859e-02 -1.063300e-01 +9.884114e-01 +1.063300e-01 +9.884114e-01 +1.063300e-01 +1.158859e-02 -1.063300e-01
1.531087e+05 +1.083314e-02 -1.027980e-01 +9.891669e-01 +1.027980e-01 +9.891669e-01 +1.027980e-01 +1.083314e-02 -1.027980e-01
1.584893e+05 +1.012707e-02 -9.937836e-02 +9.898729e-01 +9.937836e-02 +9.898729e-01 +9.937836e-02 +1.012707e-02 -9.937836e-02
1.640590e+05 +9.467222e-03 -9.606787e-02 +9.905328e-01 +9.606787e-02 +9.905328e-01 +9.606787e-02 +9.467222e-03 -9.606787e-02
1.698244e+05 +8.850618e-03 -9.286353e-02 +9.911494e-01 +9.286353e-02 +9.911494e-01 +9.286353e-02 +8.850618e-03 -9.286353e-02
1.757924e+05 +8.274477e-03 -8.976232e-02 +9.917255e-01 +8.976232e-02 +9.917255e-01 +8.976232e-02 +8.274477e-03 -8.976232e-02
1.819701e+05 +7.736186e-03 -8.676128e-02 +9.922638e-01 +8.676128e-02 +9.922638e-01 +8.676128e-02 +7.736186e-03 -8.676128e-02
1.883649e+05 +7.233296e-03 -8.385752e-02 +9.927667e-01 +8.385752e-02 +9.927667e-01 +8.385752e-02 +7.233296e-03 -8.385752e-02
1.949845e+05 +6.763512e-03 -8.104816e-02 +9.932365e-01 +8.104816e-02 +9.932365e-01 +8.104816e-02 +6.763512e-03 -8.104816e-02
2.018366e+05 +6.324683e-03 -7.833041e-02 +9.936753e-01 +7.833041e-02 +9.936753e-01 +7.833041e-02 +6.324683e-03 -7.833041e-02
2.089296e+05 +5.914794e-03 -7.570151e-02 +9.940852e-01 +7.570151e-02 +9.940852e-01 +7.570151e-02 +5.914794e-03 -7.570151e-02
2.162719e+05 +5.531958e-03 -7.315878e-02 +9.944680e-01 +7.315878e-02 +9.944680e-01 +7.315878e-02 +5.531958e-03 -7.315878e-02
2.238721e+05 +5.174408e-03 -7.069959e-02 +9.948256e-01 +7.069959e-02 +9.948256e-01 +7.069959e-02 +5.174408e-03 -7.069959e-02
2.317395e+05 +4.840492e-03 -6.832137e-02 +9.951595e-01 +6.832137e-02 +9.951595e-01 +6.832137e-02 +4.840492e-03 -6.832137e-02
2.398833e+05 +4.528660e-03 -6.602161e-02 +9.954713e-01 +6.602161e-02 +9.954713e-01 +6.602161e-02 +4.528660e-03 -6.602161e-02
2.483133e+05 +4.237466e-03 -6.379787e-02 +9.957625e-01 +6.379787e-02 +9.957625e-01 +6.379787e-02 +4.237466e-03 -6.379787e-02
2.570396e+05 +3.965554e-03 -6.164775e-02 +9.960344e-01 +6.164775e-02 +9.960344e-01 +6.164775e-02 +3.965554e-03 -6.164775e-02
2.660725e+05 +3.711657e-03 -5.956895e-02 +9.962883e-01 +5.956895e-02 +9.962883e-01 +5.956895e-02 +3.711657e-03 -5.956895e-02
2.754229e+05 +3.474589e-03 -5.755919e-02 +9.965254e-01 +5.755919e-02 +9.965254e-01 +5.755919e-02 +3.474589e-03 -5.755919e-02
2.851018e+05 +3.253243e-03 -5.561628e-02 +9.967468e-01 +5.561628e-02 +9.967468e-01 +5.561628e-02 +3.253243e-03 -5.561628e-02
2.951209e+05 +3.046583e-03 -5.373807e-02 +9.969534e-01 +5.373807e-02 +9.969534e-01 +5.373807e-02 +3.046583e-03 -5.373807e-02
3.054921e+05 +2.853638e-03 -5.192249e-02 +9.971464e-01 +5.192249e-02 +9.971464e-01 +5.192249e-02 +2.853638e-03 -5.192249e-02
3.162278e+05 +2.673505e-03 -5.016752e-02 +9.973265e-01 +5.016752e-02 +9.973265e-01 +5.016752e-02 +2.673505e-03 -5.016752e-02
3.273407e+05 +2.505336e-03 -4.847120e-02 +9.974947e-01 +4.847120e-02 +9.974947e-01 +4.847120e-02 +2.505336e-03 -4.847120e-02
3.388442e+05 +2.348340e-03 -4.683161e-02 +9.976517e-01 +4.683161e-02 +9.976517e-01 +4.683161e-02 +2.348340e-03 -4.683161e-02
3.507519e+05 +2.201778e-03 -4.524691e-02 +9.977982e-01 +4.524691e-02 +9.977982e-01 +4.524691e-02 +2.201778e-03 -4.524691e-02
3.630781e+05 +2.064960e-03 -4.371531e-02 +9.979350e-01 +4.371531e-02 +9.979350e-01 +4.371531e-02 +2.064960e-03 -4.371531e-02
3.758374e+05 +1.937240e-03 -4.223506e-02 +9.980628e-01 +4.223506e-02 +9.980628e-01 +4.223506e-02 +1.937240e-03 -4.223506e-02
3.890451e+05 +1.818016e-03 -4.080448e-02 +9.981820e-01 +4.080448e-02 +9.981820e-01 +4.080448e-02 +1.818016e-03 -4.080448e-02
4.027170e+05 +1.706723e-03 -3.942193e-02 +9.982933e-01 +3.942193e-02 +9.982933e-01 +3.942193e-02 +1.706723e-03 -3.942193e-02
4.168694e+05 +1.602837e-03 -3.808583e-02 +9.983972e-01 +3.808583e-02 +9.983972e-01 +3.808583e-02 +1.602837e-03 -3.808583e-02
4.315191e+05 +1.505864e-03 -3.679464e-02 +9.984941e-01 +3.679464e-02 +9.984941e-01 +3.679464e-02 +1.505864e-03 -3.679464e-02
4.466836e+05 +1.415348e-03 -3.554686e-02 +9.985847e-01 +3.554686e-02 +9.985847e-01 +3.554686e-02 +1.415348e-03 -3.554686e-02
4.623810e+05 +1.330858e-03 -3.434107e-02 +9.986691e-01 +3.434107e-02 +9.986691e-01 +3.434107e-02 +1.330858e-03 -3.434107e-02
4.786301e+05 +1.251994e-03 -3.317585e-02 +9.987480e-01 +3.317585e-02 +9.987480e-01 +3.317585e-02 +1.251994e-03 -3.317585e-02
4.954502e+05 +1.178384e-03 -3.204987e-02 +9.988216e-01 +3.204987e-02 +9.988216e-01 +3.204987e-02 +1.178384e-03 -3.204987e-02
5.128614e+05 +1.109676e-03 -3.096181e-02 +9.988903e-01 +3.096181e-02 +9.988903e-01 +3.096181e-02 +1.109676e-03 -3.096181e-02
5.308844e+05 +1.045546e-03 -2.991040e-02 +9.989545e-01 +2.991040e-02 +9.989545e-01 +2.991040e-02 +1.045546e-03 -2.991040e-02
5.495409e+05 +9.856891e-04 -2.889443e-02 +9.990143e-01 +2.889443e-02 +9.990143e-01 +2.889443e-02 +9.856891e-04 -2.889443e-02
5.688529e+05 +9.298208e-04 -2.791269e-02 +9.990702e-01 +2.791269e-02 +9.990702e-01 +2.791269e-02 +9.298208e-04 -2.791269e-02
5.888437e+05 +8.776759e-04 -2.696404e-02 +9.991223e-01 +2.696404e-02 +9.991223e-01 +2.696404e-02 +8.776759e-04 -2.696404e-02
6.095369e+05 +8.290065e-04 -2.604738e-02 +9.991710e-01 +2.604738e-02 +9.991710e-01 +2.604738e-02 +8.290065e-04 -2.604738e-02
6.309573e+05 +7.835813e-04 -2.516162e-02 +9.992164e-01 +2.516162e-02 +9.992164e-01 +2.516162e-02 +7.835813e-04 -2.516162e-02
6.531306e+05 +7.411843e-04 -2.430573e-02 +9.992588e-01 +2.430573e-02 +9.992588e-01 +2.430573e-02 +7.411843e-04 -2.430573e-02
6.760830e+05 +7.016139e-04 -2.347870e-02 +9.992984e-01 +2.347870e-02 +9.992984e-01 +2.347870e-02 +7.016139e-04 -2.347870e-02
6.998420e+05 +6.646819e-04 -2.267956e-02 +9.993353e-01 +2.267956e-02 +9.993353e-01 +2.267956e-02 +6.646819e-04 -2.267956e-02
7.244360e+05 +6.302124e-04 -2.190736e-02 +9.993698e-01 +2.190736e-02 +9.993698e-01 +2.190736e-02 +6.302124e-04 -2.190736e-02
7.498942e+05 +5.980416e-04 -2.116119e-02 +9.994020e-01 +2.116119e-02 +9.994020e-01 +2.116119e-02 +5.980416e-04 -2.116119e-02
7.762471e+05 +5.680161e-04 -2.044018e-02 +9.994320e-01 +2.044018e-02 +9.994320e-01 +2.044018e-02 +5.680161e-04 -2.044018e-02
8.035261e+05 +5.399931e-04 -1.974348e-02 +9.994600e-01 +1.974348e-02 +9.994600e-01 +1.974348e-02 +5.399931e-04 -1.974348e-02
8.317638e+05 +5.138391e-04 -1.907026e-02 +9.994862e-01 +1.907026e-02 +9.994862e-01 +1.907026e-02 +5.138391e-04 -1.907026e-02
8.609938e+05 +4.894296e-04 -1.841972e-02 +9.995106e-01 +1.841972e-02 +9.995106e-01 +1.841972e-02 +4.894296e-04 -1.841972e-02
8.912509e+05 +4.666483e-04 -1.779109e-02 +9.995334e-01 +1.779109e-02 +9.995334e-01 +1.779109e-02 +4.666483e-04 -1.779109e-02
9.225714e+05 +4.453866e-04 -1.718364e-02 +9.995546e-01 +1.718364e-02 +9.995546e-01 +1.718364e-02 +4.453866e-04 -1.718364e-02
9.549926e+05 +4.255432e-04 -1.659664e-02 +9.995745e-01 +1.659664e-02 +9.995745e-01 +1.659664e-02 +4.255432e-04 -1.659664e-02
9.885531e+05 +4.070237e-04 -1.602940e-02 +9.995930e-01 +1.602940e-02 +9.995930e-01 +1.602940e-02 +4.070237e-04 -1.602940e-02
1.023293e+06 +3.897396e-04 -1.548124e-02 +9.996103e-01 +1.548124e-02 +9.996103e-01 +1.548124e-02 +3.897396e-04 -1.548124e-02
1.059254e+06 +3.736087e-04 -1.495151e-02 +9.996264e-01 +1.495151e-02 +9.996264e-01 +1.495151e-02 +3.736087e-04 -1.495151e-02
1.096478e+06 +3.585540e-04 -1.443959e-02 +9.996414e-01 +1.443959e-02 +9.996414e-01 +1.443959e-02 +3.585540e-04 -1.443959e-02
1.135011e+06 +3.445038e-04 -1.394487e-02 +9.996555e-01 +1.394487e-02 +9.996555e-01 +1.394487e-02 +3.445038e-04 -1.394487e-02
1.174898e+06 +3.313911e-04 -1.346675e-02 +9.996686e-01 +1.346675e-02 +9.996686e-01 +1.346675e-02 +3.313911e-04 -1.346675e-02
1.216186e+06 +3.191533e-04 -1.300468e-02 +9.996808e-01 +1.300468e-02 +9.996808e-01 +1.300468e-02 +3.191533e-04 -1.300468e-02
1.258925e+06 +3.077322e-04 -1.255811e-02 +9.996923e-01 +1.255811e-02 +9.996923e-01 +1.255811e-02 +3.077322e-04 -1.255811e-02
1.303167e+06 +2.970731e-04 -1.212650e-02 +9.997029e-01 +1.212650e-02 +9.997029e-01 +1.212650e-02 +2.970731e-04 -1.212650e-02
1.348963e+06 +2.871254e-04 -1.170933e-02 +9.997129e-01 +1.170933e-02 +9.997129e-01 +1.170933e-02 +2.871254e-04 -1.170933e-02
1.396368e+06 +2.778415e-04 -1.130613e-02 +9.997222e-01 +1.130613e-02 +9.997222e-01 +1.130613e-02 +2.778415e-04 -1.130613e-02
1.445440e+06 +2.691772e-04 -1.091639e-02 +9.997308e-01 +1.091639e-02 +9.997308e-01 +1.091639e-02 +2.691772e-04 -1.091639e-02
1.496236e+06 +2.610911e-04 -1.053967e-02 +9.997389e-01 +1.053967e-02 +9.997389e-01 +1.053967e-02 +2.610911e-04 -1.053967e-02
1.548817e+06 +2.535447e-04 -1.017551e-02 +9.997465e-01 +1.017551e-02 +9.997465e-01 +1.017551e-02 +2.535447e-04 -1.017551e-02
1.600000e+06 +2.469019e-04 -9.843804e-03 +9.997531e-01 +9.843804e-03 +9.997531e-01 +9.843804e-03 +2.469019e-04 -9.843804e-03
1.603245e+06 +2.465020e-04 -9.823479e-03 +9.997535e-01 +9.823479e-03 +9.997535e-01 +9.823479e-03 +2.465020e-04 -9.823479e-03
1.659587e+06 +2.399294e-04 -9.483159e-03 +9.997601e-01 +9.483159e-03 +9.997601e-01 +9.483159e-03 +2.399294e-04 -9.483159e-03
1.663132e+06 +2.395380e-04 -9.462508e-03 +9.997605e-01 +9.462508e-03 +9.997605e-01 +9.462508e-03 +2.395380e-04 -9.462508e-03
1.717908e+06 +2.337955e-04 -9.154144e-03 +9.997662e-01 +9.154144e-03 +9.997662e-01 +9.154144e-03 +2.337955e-04 -9.154144e-03
1.728755e+06 +2.327226e-04 -9.095375e-03 +9.997673e-01 +9.095375e-03 +9.997673e-01 +9.095375e-03 +2.327226e-04 -9.095375e-03
1.778279e+06 +2.280710e-04 -8.836043e-03 +9.997719e-01 +8.836043e-03 +9.997719e-01 +8.836043e-03 +2.280710e-04 -8.836043e-03
1.796967e+06 +2.264148e-04 -8.741856e-03 +9.997736e-01 +8.741856e-03 +9.997736e-01 +8.741856e-03 +2.264148e-04 -8.741856e-03
1.840772e+06 +2.227286e-04 -8.528477e-03 +9.997773e-01 +8.528477e-03 +9.997773e-01 +8.528477e-03 +2.227286e-04 -8.528477e-03
1.867871e+06 +2.205770e-04 -8.401421e-03 +9.997794e-01 +8.401421e-03 +9.997794e-01 +8.401421e-03 +2.205770e-04 -8.401421e-03
1.905461e+06 +2.177429e-04 -8.231080e-03 +9.997823e-01 +8.231080e-03 +9.997823e-01 +8.231080e-03 +2.177429e-04 -8.231080e-03
1.941572e+06 +2.151739e-04 -8.073563e-03 +9.997848e-01 +8.073563e-03 +9.997848e-01 +8.073563e-03 +2.151739e-04 -8.073563e-03
1.972423e+06 +2.130901e-04 -7.943498e-03 +9.997869e-01 +7.943498e-03 +9.997869e-01 +7.943498e-03 +2.130901e-04 -7.943498e-03
2.018182e+06 +2.101735e-04 -7.757790e-03 +9.997898e-01 +7.757790e-03 +9.997898e-01 +7.757790e-03 +2.101735e-04 -7.757790e-03
2.041738e+06 +2.087479e-04 -7.665387e-03 +9.997913e-01 +7.665387e-03 +9.997913e-01 +7.665387e-03 +2.087479e-04 -7.665387e-03
2.097814e+06 +2.055455e-04 -7.453632e-03 +9.997945e-01 +7.453632e-03 +9.997945e-01 +7.453632e-03 +2.055455e-04 -7.453632e-03
2.113489e+06 +2.046957e-04 -7.396417e-03 +9.997953e-01 +7.396417e-03 +9.997953e-01 +7.396417e-03 +2.046957e-04 -7.396417e-03
2.180589e+06 +2.012625e-04 -7.160632e-03 +9.997987e-01 +7.160632e-03 +9.997987e-01 +7.160632e-03 +2.012625e-04 -7.160632e-03
2.187762e+06 +2.009140e-04 -7.136267e-03 +9.997991e-01 +7.136267e-03 +9.997991e-01 +7.136267e-03 +2.009140e-04 -7.136267e-03
2.264644e+06 +1.973850e-04 -6.884627e-03 +9.998026e-01 +6.884627e-03 +9.998026e-01 +6.884627e-03 +1.973850e-04 -6.884627e-03
2.266629e+06 +1.972986e-04 -6.878352e-03 +9.998027e-01 +6.878352e-03 +9.998027e-01 +6.878352e-03 +1.972986e-04 -6.878352e-03
2.344229e+06 +1.940916e-04 -6.641198e-03 +9.998059e-01 +6.641198e-03 +9.998059e-01 +6.641198e-03 +1.940916e-04 -6.641198e-03
2.356065e+06 +1.936301e-04 -6.606371e-03 +9.998064e-01 +6.606371e-03 +9.998064e-01 +6.606371e-03 +1.936301e-04 -6.606371e-03
2.426610e+06 +1.910182e-04 -6.405689e-03 +9.998090e-01 +6.405689e-03 +9.998090e-01 +6.405689e-03 +1.910182e-04 -6.405689e-03
2.449029e+06 +1.902351e-04 -6.344281e-03 +9.998098e-01 +6.344281e-03 +9.998098e-01 +6.344281e-03 +1.902351e-04 -6.344281e-03
2.511886e+06 +1.881501e-04 -6.177819e-03 +9.998118e-01 +6.177819e-03 +9.998118e-01 +6.177819e-03 +1.881501e-04 -6.177819e-03
2.545662e+06 +1.870931e-04 -6.091690e-03 +9.998129e-01 +6.091690e-03 +9.998129e-01 +6.091690e-03 +1.870931e-04 -6.091690e-03
2.600160e+06 +1.854737e-04 -5.957318e-03 +9.998145e-01 +5.957318e-03 +9.998145e-01 +5.957318e-03 +1.854737e-04 -5.957318e-03
2.646107e+06 +1.841855e-04 -5.848220e-03 +9.998158e-01 +5.848220e-03 +9.998158e-01 +5.848220e-03 +1.841855e-04 -5.848220e-03
2.691535e+06 +1.829762e-04 -5.743921e-03 +9.998170e-01 +5.743921e-03 +9.998170e-01 +5.743921e-03 +1.829762e-04 -5.743921e-03
2.750516e+06 +1.814947e-04 -5.613507e-03 +9.998185e-01 +5.613507e-03 +9.998185e-01 +5.613507e-03 +1.814947e-04 -5.613507e-03
2.786121e+06 +1.806456e-04 -5.537376e-03 +9.998194e-01 +5.537376e-03 +9.998194e-01 +5.537376e-03 +1.806456e-04 -5.537376e-03
2.859044e+06 +1.790046e-04 -5.387200e-03 +9.998210e-01 +5.387200e-03 +9.998210e-01 +5.387200e-03 +1.790046e-04 -5.387200e-03
2.884032e+06 +1.784708e-04 -5.337435e-03 +9.998215e-01 +5.337435e-03 +9.998215e-01 +5.337435e-03 +1.784708e-04 -5.337435e-03
2.971855e+06 +1.767004e-04 -5.168959e-03 +9.998233e-01 +5.168959e-03 +9.998233e-01 +5.168959e-03 +1.767004e-04 -5.168959e-03
2.985383e+06 +1.764415e-04 -5.143860e-03 +9.998236e-01 +5.143860e-03 +9.998236e-01 +5.143860e-03 +1.764415e-04 -5.143860e-03
3.089116e+06 +1.745681e-04 -4.958459e-03 +9.998254e-01 +4.958459e-03 +9.998254e-01 +4.958459e-03 +1.745681e-04 -4.958459e-03
3.090295e+06 +1.745479e-04 -4.956421e-03 +9.998255e-01 +4.956421e-03 +9.998255e-01 +4.956421e-03 +1.745479e-04 -4.956421e-03
3.198895e+06 +1.727810e-04 -4.774893e-03 +9.998272e-01 +4.774893e-03 +9.998272e-01 +4.774893e-03 +1.727810e-04 -4.774893e-03
3.211005e+06 +1.725951e-04 -4.755384e-03 +9.998274e-01 +4.755384e-03 +9.998274e-01 +4.755384e-03 +1.725951e-04 -4.755384e-03
3.311311e+06 +1.711325e-04 -4.599061e-03 +9.998289e-01 +4.599061e-03 +9.998289e-01 +4.599061e-03 +1.711325e-04 -4.599061e-03
3.337703e+06 +1.707695e-04 -4.559430e-03 +9.998292e-01 +4.559430e-03 +9.998292e-01 +4.559430e-03 +1.707695e-04 -4.559430e-03
3.427678e+06 +1.695943e-04 -4.428715e-03 +9.998304e-01 +4.428715e-03 +9.998304e-01 +4.428715e-03 +1.695943e-04 -4.428715e-03
3.469400e+06 +1.690803e-04 -4.370303e-03 +9.998309e-01 +4.370303e-03 +9.998309e-01 +4.370303e-03 +1.690803e-04 -4.370303e-03
3.548134e+06 +1.681593e-04 -4.263652e-03 +9.998318e-01 +4.263652e-03 +9.998318e-01 +4.263652e-03 +1.681593e-04 -4.263652e-03
3.606294e+06 +1.675175e-04 -4.187722e-03 +9.998325e-01 +4.187722e-03 +9.998325e-01 +4.187722e-03 +1.675175e-04 -4.187722e-03
3.672823e+06 +1.668205e-04 -4.103674e-03 +9.998332e-01 +4.103674e-03 +9.998332e-01 +4.103674e-03 +1.668205e-04 -4.103674e-03
3.748589e+06 +1.660716e-04 -4.011411e-03 +9.998339e-01 +4.011411e-03 +9.998339e-01 +4.011411e-03 +1.660716e-04 -4.011411e-03
3.801894e+06 +1.655715e-04 -3.948592e-03 +9.998344e-01 +3.948592e-03 +9.998344e-01 +3.948592e-03 +1.655715e-04 -3.948592e-03
3.896499e+06 +1.647340e-04 -3.841108e-03 +9.998353e-01 +3.841108e-03 +9.998353e-01 +3.841108e-03 +1.647340e-04 -3.841108e-03
3.935501e+06 +1.644063e-04 -3.798220e-03 +9.998356e-01 +3.798220e-03 +9.998356e-01 +3.798220e-03 +1.644063e-04 -3.798220e-03
4.050245e+06 +1.634968e-04 -3.676558e-03 +9.998365e-01 +3.676558e-03 +9.998365e-01 +3.676558e-03 +1.634968e-04 -3.676558e-03
4.073803e+06 +1.633195e-04 -3.652378e-03 +9.998367e-01 +3.652378e-03 +9.998367e-01 +3.652378e-03 +1.633195e-04 -3.652378e-03
4.210058e+06 +1.623524e-04 -3.517513e-03 +9.998376e-01 +3.517513e-03 +9.998376e-01 +3.517513e-03 +1.623524e-04 -3.517513e-03
4.216965e+06 +1.623059e-04 -3.510894e-03 +9.998377e-01 +3.510894e-03 +9.998377e-01 +3.510894e-03 +1.623059e-04 -3.510894e-03
4.365158e+06 +1.613605e-04 -3.373597e-03 +9.998386e-01 +3.373597e-03 +9.998386e-01 +3.373597e-03 +1.613605e-04 -3.373597e-03
4.376176e+06 +1.612940e-04 -3.363736e-03 +9.998387e-01 +3.363736e-03 +9.998387e-01 +3.363736e-03 +1.612940e-04 -3.363736e-03
4.518559e+06 +1.604789e-04 -3.240325e-03 +9.998395e-01 +3.240325e-03 +9.998395e-01 +3.240325e-03 +1.604789e-04 -3.240325e-03
4.548849e+06 +1.603154e-04 -3.214997e-03 +9.998397e-01 +3.214997e-03 +9.998397e-01 +3.214997e-03 +1.603154e-04 -3.214997e-03
4.677351e+06 +1.596569e-04 -3.110918e-03 +9.998403e-01 +3.110918e-03 +9.998403e-01 +3.110918e-03 +1.596569e-04 -3.110918e-03
4.728335e+06 +1.594105e-04 -3.071072e-03 +9.998406e-01 +3.071072e-03 +9.998406e-01 +3.071072e-03 +1.594105e-04 -3.071072e-03
4.841724e+06 +1.588905e-04 -2.985223e-03 +9.998411e-01 +2.985223e-03 +9.998411e-01 +2.985223e-03 +1.588905e-04 -2.985223e-03
4.914903e+06 +1.585740e-04 -2.931748e-03 +9.998414e-01 +2.931748e-03 +9.998414e-01 +2.931748e-03 +1.585740e-04 -2.931748e-03
5.011872e+06 +1.581761e-04 -2.863089e-03 +9.998418e-01 +2.863089e-03 +9.998418e-01 +2.863089e-03 +1.581761e-04 -2.863089e-03
5.108832e+06 +1.578009e-04 -2.796813e-03 +9.998422e-01 +2.796813e-03 +9.998422e-01 +2.796813e-03 +1.578009e-04 -2.796813e-03
5.188000e+06 +1.575103e-04 -2.744370e-03 +9.998425e-01 +2.744370e-03 +9.998425e-01 +2.744370e-03 +1.575103e-04 -2.744370e-03
5.310414e+06 +1.570865e-04 -2.666068e-03 +9.998429e-01 +2.666068e-03 +9.998429e-01 +2.666068e-03 +1.570865e-04 -2.666068e-03
5.370318e+06 +1.568898e-04 -2.628925e-03 +9.998431e-01 +2.628925e-03 +9.998431e-01 +2.628925e-03 +1.568898e-04 -2.628925e-03
5.519950e+06 +1.564266e-04 -2.539315e-03 +9.998436e-01 +2.539315e-03 +9.998436e-01 +2.539315e-03 +1.564266e-04 -2.539315e-03
5.559043e+06 +1.563118e-04 -2.516616e-03 +9.998437e-01 +2.516616e-03 +9.998437e-01 +2.516616e-03 +1.563118e-04 -2.516616e-03
5.737753e+06 +1.558172e-04 -2.416366e-03 +9.998442e-01 +2.416366e-03 +9.998442e-01 +2.416366e-03 +1.558172e-04 -2.416366e-03
5.754399e+06 +1.557735e-04 -2.407309e-03 +9.998442e-01 +2.407309e-03 +9.998442e-01 +2.407309e-03 +1.557735e-04 -2.407309e-03
5.956621e+06 +1.552723e-04 -2.300875e-03 +9.998447e-01 +2.300875e-03 +9.998447e-01 +2.300875e-03 +1.552723e-04 -2.300875e-03
5.964150e+06 +1.552547e-04 -2.297035e-03 +9.998447e-01 +2.297035e-03 +9.998447e-01 +2.297035e-03 +1.552547e-04 -2.297035e-03
6.165950e+06 +1.548059e-04 -2.197185e-03 +9.998452e-01 +2.197185e-03 +9.998452e-01 +2.197185e-03 +1.548059e-04 -2.197185e-03
6.199480e+06 +1.547356e-04 -2.181145e-03 +9.998453e-01 +2.181145e-03 +9.998453e-01 +2.181145e-03 +1.547356e-04 -2.181145e-03
6.382635e+06 +1.543719e-04 -2.096116e-03 +9.998456e-01 +2.096116e-03 +9.998456e-01 +2.096116e-03 +1.543719e-04 -2.096116e-03
6.444096e+06 +1.542569e-04 -2.068521e-03 +9.998457e-01 +2.068521e-03 +9.998457e-01 +2.068521e-03 +1.542569e-04 -2.068521e-03
6.606934e+06 +1.539683e-04 -1.997548e-03 +9.998460e-01 +1.997548e-03 +9.998460e-01 +1.997548e-03 +1.539683e-04 -1.997548e-03
6.698364e+06 +1.538158e-04 -1.958995e-03 +9.998462e-01 +1.958995e-03 +9.998462e-01 +1.958995e-03 +1.538158e-04 -1.958995e-03
6.839116e+06 +1.535932e-04 -1.901363e-03 +9.998464e-01 +1.901363e-03 +9.998464e-01 +1.901363e-03 +1.535932e-04 -1.901363e-03
6.962664e+06 +1.534094e-04 -1.852404e-03 +9.998466e-01 +1.852404e-03 +9.998466e-01 +1.852404e-03 +1.534094e-04 -1.852404e-03
7.079458e+06 +1.532449e-04 -1.807446e-03 +9.998468e-01 +1.807446e-03 +9.998468e-01 +1.807446e-03 +1.532449e-04 -1.807446e-03
7.237393e+06 +1.530355e-04 -1.748587e-03 +9.998470e-01 +1.748587e-03 +9.998470e-01 +1.748587e-03 +1.530355e-04 -1.748587e-03
7.328245e+06 +1.529215e-04 -1.715685e-03 +9.998471e-01 +1.715685e-03 +9.998471e-01 +1.715685e-03 +1.529215e-04 -1.715685e-03
7.522962e+06 +1.526918e-04 -1.647388e-03 +9.998473e-01 +1.647388e-03 +9.998473e-01 +1.647388e-03 +1.526918e-04 -1.647388e-03
7.585776e+06 +1.526217e-04 -1.625972e-03 +9.998474e-01 +1.625972e-03 +9.998474e-01 +1.625972e-03 +1.526217e-04 -1.625972e-03
7.819799e+06 +1.523762e-04 -1.548657e-03 +9.998476e-01 +1.548657e-03 +9.998476e-01 +1.548657e-03 +1.523762e-04 -1.548657e-03
7.852356e+06 +1.523439e-04 -1.538198e-03 +9.998477e-01 +1.538198e-03 +9.998477e-01 +1.538198e-03 +1.523439e-04 -1.538198e-03
8.128305e+06 +1.520869e-04 -1.452259e-03 +9.998479e-01 +1.452259e-03 +9.998479e-01 +1.452259e-03 +1.520869e-04 -1.452259e-03
8.128349e+06 +1.520868e-04 -1.452246e-03 +9.998479e-01 +1.452246e-03 +9.998479e-01 +1.452246e-03 +1.520868e-04 -1.452246e-03
8.413951e+06 +1.518494e-04 -1.368053e-03 +9.998482e-01 +1.368053e-03 +9.998482e-01 +1.368053e-03 +1.518494e-04 -1.368053e-03
8.449073e+06 +1.518220e-04 -1.358009e-03 +9.998482e-01 +1.358009e-03 +9.998482e-01 +1.358009e-03 +1.518220e-04 -1.358009e-03
8.709636e+06 +1.516302e-04 -1.285478e-03 +9.998484e-01 +1.285478e-03 +9.998484e-01 +1.285478e-03 +1.516302e-04 -1.285478e-03
8.782452e+06 +1.515800e-04 -1.265807e-03 +9.998484e-01 +1.265807e-03 +9.998484e-01 +1.265807e-03 +1.515800e-04 -1.265807e-03
9.015711e+06 +1.514284e-04 -1.204438e-03 +9.998486e-01 +1.204438e-03 +9.998486e-01 +1.204438e-03 +1.514284e-04 -1.204438e-03
9.128985e+06 +1.513595e-04 -1.175500e-03 +9.998486e-01 +1.175500e-03 +9.998486e-01 +1.175500e-03 +1.513595e-04 -1.175500e-03
9.332543e+06 +1.512429e-04 -1.124834e-03 +9.998488e-01 +1.124834e-03 +9.998488e-01 +1.124834e-03 +1.512429e-04 -1.124834e-03
9.489192e+06 +1.511592e-04 -1.086954e-03 +9.998488e-01 +1.086954e-03 +9.998488e-01 +1.086954e-03 +1.511592e-04 -1.086954e-03
9.660509e+06 +1.510730e-04 -1.046572e-03 +9.998489e-01 +1.046572e-03 +9.998489e-01 +1.046572e-03 +1.510730e-04 -1.046572e-03
9.863611e+06 +1.509777e-04 -1.000036e-03 +9.998490e-01 +1.000036e-03 +9.998490e-01 +1.000036e-03 +1.509777e-04 -1.000036e-03
1.000000e+07 +1.509177e-04 -9.695586e-04 +9.998491e-01 +9.695586e-04 +9.998491e-01 +9.695586e-04 +1.509177e-04 -9.695586e-04
1.025280e+07 +1.508142e-04 -9.146155e-04 +9.998492e-01 +9.146155e-04 +9.998492e-01 +9.146155e-04 +1.508142e-04 -9.146155e-04
1.035142e+07 +1.507763e-04 -8.937020e-04 +9.998492e-01 +8.937020e-04 +9.998492e-01 +8.937020e-04 +1.507763e-04 -8.937020e-04
1.065735e+07 +1.506674e-04 -8.305650e-04 +9.998493e-01 +8.305650e-04 +9.998493e-01 +8.305650e-04 +1.506674e-04 -8.305650e-04
1.071519e+07 +1.506482e-04 -8.189116e-04 +9.998494e-01 +8.189116e-04 +9.998494e-01 +8.189116e-04 +1.506482e-04 -8.189116e-04
1.107787e+07 +1.505367e-04 -7.477585e-04 +9.998495e-01 +7.477585e-04 +9.998495e-01 +7.477585e-04 +1.505367e-04 -7.477585e-04
1.109175e+07 +1.505328e-04 -7.450982e-04 +9.998495e-01 +7.450982e-04 +9.998495e-01 +7.450982e-04 +1.505328e-04 -7.450982e-04
1.148154e+07 +1.504294e-04 -6.721737e-04 +9.998496e-01 +6.721737e-04 +9.998496e-01 +6.721737e-04 +1.504294e-04 -6.721737e-04
1.151497e+07 +1.504212e-04 -6.660720e-04 +9.998496e-01 +6.660720e-04 +9.998496e-01 +6.660720e-04 +1.504212e-04 -6.660720e-04
1.188502e+07 +1.503376e-04 -6.000511e-04 +9.998497e-01 +6.000511e-04 +9.998497e-01 +6.000511e-04 +1.503376e-04 -6.000511e-04
1.196932e+07 +1.503202e-04 -5.853831e-04 +9.998497e-01 +5.853831e-04 +9.998497e-01 +5.853831e-04 +1.503202e-04 -5.853831e-04
1.230269e+07 +1.502570e-04 -5.286443e-04 +9.998497e-01 +5.286443e-04 +9.998497e-01 +5.286443e-04 +1.502570e-04 -5.286443e-04
1.244160e+07 +1.502331e-04 -5.055710e-04 +9.998498e-01 +5.055710e-04 +9.998498e-01 +5.055710e-04 +1.502331e-04 -5.055710e-04
1.273503e+07 +1.501872e-04 -4.578683e-04 +9.998498e-01 +4.578683e-04 +9.998498e-01 +4.578683e-04 +1.501872e-04 -4.578683e-04
1.293252e+07 +1.501594e-04 -4.265160e-04 +9.998498e-01 +4.265160e-04 +9.998498e-01 +4.265160e-04 +1.501594e-04 -4.265160e-04
1.318257e+07 +1.501278e-04 -3.876385e-04 +9.998499e-01 +3.876385e-04 +9.998499e-01 +3.876385e-04 +1.501278e-04 -3.876385e-04
1.344280e+07 +1.500987e-04 -3.480999e-04 +9.998499e-01 +3.480999e-04 +9.998499e-01 +3.480999e-04 +1.500987e-04 -3.480999e-04
1.364583e+07 +1.500786e-04 -3.178711e-04 +9.998499e-01 +3.178711e-04 +9.998499e-01 +3.178711e-04 +1.500786e-04 -3.178711e-04
1.397322e+07 +1.500505e-04 -2.702052e-04 +9.998499e-01 +2.702052e-04 +9.998499e-01 +2.702052e-04 +1.500505e-04 -2.702052e-04
1.412538e+07 +1.500393e-04 -2.484830e-04 +9.998500e-01 +2.484830e-04 +9.998500e-01 +2.484830e-04 +1.500393e-04 -2.484830e-04
1.452457e+07 +1.500146e-04 -1.927152e-04 +9.998500e-01 +1.927152e-04 +9.998500e-01 +1.927152e-04 +1.500146e-04 -1.927152e-04
1.462177e+07 +1.500097e-04 -1.793913e-04 +9.998500e-01 +1.793913e-04 +9.998500e-01 +1.793913e-04 +1.500097e-04 -1.793913e-04
1.509767e+07 +1.499908e-04 -1.155138e-04 +9.998500e-01 +1.155138e-04 +9.998500e-01 +1.155138e-04 +1.499908e-04 -1.155138e-04
1.513561e+07 +1.499897e-04 -1.105136e-04 +9.998500e-01 +1.105136e-04 +9.998500e-01 +1.105136e-04 +1.499897e-04 -1.105136e-04
1.566751e+07 +1.499792e-04 -4.176779e-05 +9.998500e-01 +4.176779e-05 +9.998500e-01 +4.176779e-05 +1.499792e-04 -4.176779e-05
1.569338e+07 +1.499790e-04 -3.848537e-05 +9.998500e-01 +3.848537e-05 +9.998500e-01 +3.848537e-05 +1.499790e-04 -3.848537e-05
1.621810e+07 +1.499782e-04 +2.692821e-05 +9.998500e-01 -2.692821e-05 +9.998500e-01 -2.692821e-05 +1.499782e-04 +2.692821e-05
1.631261e+07 +1.499790e-04 +3.848537e-05 +9.998500e-01 -3.848537e-05 +9.998500e-01 -3.848537e-05 +1.499790e-04 +3.848537e-05
1.678804e+07 +1.499867e-04 +9.565633e-05 +9.998500e-01 -9.565633e-05 +9.998500e-01 -9.565633e-05 +1.499867e-04 +9.565633e-05
1.695626e+07 +1.499908e-04 +1.155138e-04 +9.998500e-01 -1.155138e-04 +9.998500e-01 -1.155138e-04 +1.499908e-04 +1.155138e-04
1.737801e+07 +1.500046e-04 +1.644986e-04 +9.998500e-01 -1.644986e-04 +9.998500e-01 -1.644986e-04 +1.500046e-04 +1.644986e-04
1.762531e+07 +1.500146e-04 +1.927152e-04 +9.998500e-01 -1.927152e-04 +9.998500e-01 -1.927152e-04 +1.500146e-04 +1.927152e-04
1.798871e+07 +1.500321e-04 +2.335371e-04 +9.998500e-01 -2.335371e-04 +9.998500e-01 -2.335371e-04 +1.500321e-04 +2.335371e-04
1.832076e+07 +1.500505e-04 +2.702052e-04 +9.998499e-01 -2.702052e-04 +9.998499e-01 -2.702052e-04 +1.500505e-04 +2.702052e-04
1.862087e+07 +1.500692e-04 +3.028542e-04 +9.998499e-01 -3.028542e-04 +9.998499e-01 -3.028542e-04 +1.500692e-04 +3.028542e-04
1.904365e+07 +1.500987e-04 +3.480999e-04 +9.998499e-01 -3.480999e-04 +9.998499e-01 -3.480999e-04 +1.500987e-04 +3.480999e-04
1.927525e+07 +1.501163e-04 +3.725326e-04 +9.998499e-01 -3.725326e-04 +9.998499e-01 -3.725326e-04 +1.501163e-04 +3.725326e-04
1.979507e+07 +1.501594e-04 +4.265160e-04 +9.998498e-01 -4.265160e-04 +9.998498e-01 -4.265160e-04 +1.501594e-04 +4.265160e-04
1.995262e+07 +1.501735e-04 +4.426554e-04 +9.998498e-01 -4.426554e-04 +9.998498e-01 -4.426554e-04 +1.501735e-04 +4.426554e-04
2.057613e+07 +1.502331e-04 +5.055710e-04 +9.998498e-01 -5.055710e-04 +9.998498e-01 -5.055710e-04 +1.502331e-04 +5.055710e-04
2.065380e+07 +1.502410e-04 +5.133064e-04 +9.998498e-01 -5.133064e-04 +9.998498e-01 -5.133064e-04 +1.502410e-04 +5.133064e-04
2.137962e+07 +1.503193e-04 +5.845697e-04 +9.998497e-01 -5.845697e-04 +9.998497e-01 -5.845697e-04 +1.503193e-04 +5.845697e-04
2.138801e+07 +1.503202e-04 +5.853831e-04 +9.998497e-01 -5.853831e-04 +9.998497e-01 -5.853831e-04 +1.503202e-04 +5.853831e-04
2.213095e+07 +1.504086e-04 +6.565304e-04 +9.998496e-01 -6.565304e-04 +9.998496e-01 -6.565304e-04 +1.504086e-04 +6.565304e-04
2.223193e+07 +1.504212e-04 +6.660720e-04 +9.998496e-01 -6.660720e-04 +9.998496e-01 -6.660720e-04 +1.504212e-04 +6.660720e-04
2.290868e+07 +1.505094e-04 +7.292744e-04 +9.998495e-01 -7.292744e-04 +9.998495e-01 -7.292744e-04 +1.505094e-04 +7.292744e-04
2.310914e+07 +1.505367e-04 +7.477585e-04 +9.998495e-01 -7.477585e-04 +9.998495e-01 -7.477585e-04 +1.505367e-04 +7.477585e-04
2.371374e+07 +1.506222e-04 +8.028884e-04 +9.998494e-01 -8.028884e-04 +9.998494e-01 -8.028884e-04 +1.506222e-04 +8.028884e-04
2.402097e+07 +1.506674e-04 +8.305650e-04 +9.998493e-01 -8.305650e-04 +9.998493e-01 -8.305650e-04 +1.506674e-04 +8.305650e-04
2.454709e+07 +1.507476e-04 +8.774603e-04 +9.998493e-01 -8.774603e-04 +9.998493e-01 -8.774603e-04 +1.507476e-04 +8.774603e-04
2.496878e+07 +1.508142e-04 +9.146155e-04 +9.998492e-01 -9.146155e-04 +9.998492e-01 -9.146155e-04 +1.508142e-04 +9.146155e-04
2.540973e+07 +1.508860e-04 +9.530790e-04 +9.998491e-01 -9.530790e-04 +9.998491e-01 -9.530790e-04 +1.508860e-04 +9.530790e-04
2.595398e+07 +1.509777e-04 +1.000036e-03 +9.998490e-01 -1.000036e-03 +9.998490e-01 -1.000036e-03 +1.509777e-04 +1.000036e-03
2.630268e+07 +1.510382e-04 +1.029835e-03 +9.998490e-01 -1.029835e-03 +9.998490e-01 -1.029835e-03 +1.510382e-04 +1.029835e-03
2.697806e+07 +1.511592e-04 +1.086954e-03 +9.998488e-01 -1.086954e-03 +9.998488e-01 -1.086954e-03 +1.511592e-04 +1.086954e-03
2.722701e+07 +1.512050e-04 +1.107819e-03 +9.998488e-01 -1.107819e-03 +9.998488e-01 -1.107819e-03 +1.512050e-04 +1.107819e-03
2.804255e+07 +1.513595e-04 +1.175500e-03 +9.998486e-01 -1.175500e-03 +9.998486e-01 -1.175500e-03 +1.513595e-04 +1.175500e-03
2.818383e+07 +1.513870e-04 +1.187125e-03 +9.998486e-01 -1.187125e-03 +9.998486e-01 -1.187125e-03 +1.513870e-04 +1.187125e-03
2.914904e+07 +1.515800e-04 +1.265807e-03 +9.998484e-01 -1.265807e-03 +9.998484e-01 -1.265807e-03 +1.515800e-04 +1.265807e-03
2.917427e+07 +1.515852e-04 +1.267847e-03 +9.998484e-01 -1.267847e-03 +9.998484e-01 -1.267847e-03 +1.515852e-04 +1.267847e-03
3.019952e+07 +1.518005e-04 +1.350082e-03 +9.998482e-01 -1.350082e-03 +9.998482e-01 -1.350082e-03 +1.518005e-04 +1.350082e-03
3.029918e+07 +1.518220e-04 +1.358009e-03 +9.998482e-01 -1.358009e-03 +9.998482e-01 -1.358009e-03 +1.518220e-04 +1.358009e-03
3.126079e+07 +1.520340e-04 +1.433927e-03 +9.998480e-01 -1.433927e-03 +9.998480e-01 -1.433927e-03 +1.520340e-04 +1.433927e-03
3.149471e+07 +1.520868e-04 +1.452246e-03 +9.998479e-01 -1.452246e-03 +9.998479e-01 -1.452246e-03 +1.520868e-04 +1.452246e-03
3.235937e+07 +1.522867e-04 +1.519483e-03 +9.998477e-01 -1.519483e-03 +9.998477e-01 -1.519483e-03 +1.522867e-04 +1.519483e-03
3.273741e+07 +1.523762e-04 +1.548657e-03 +9.998476e-01 -1.548657e-03 +9.998476e-01 -1.548657e-03 +1.523762e-04 +1.548657e-03
3.349654e+07 +1.525599e-04 +1.606852e-03 +9.998474e-01 -1.606852e-03 +9.998474e-01 -1.606852e-03 +1.525599e-04 +1.606852e-03
3.402915e+07 +1.526918e-04 +1.647388e-03 +9.998473e-01 -1.647388e-03 +9.998473e-01 -1.647388e-03 +1.526918e-04 +1.647388e-03
3.467369e+07 +1.528548e-04 +1.696138e-03 +9.998471e-01 -1.696138e-03 +9.998471e-01 -1.696138e-03 +1.528548e-04 +1.696138e-03
3.537185e+07 +1.530355e-04 +1.748587e-03 +9.998470e-01 -1.748587e-03 +9.998470e-01 -1.748587e-03 +1.530355e-04 +1.748587e-03
3.589219e+07 +1.531730e-04 +1.787447e-03 +9.998468e-01 -1.787447e-03 +9.998468e-01 -1.787447e-03 +1.531730e-04 +1.787447e-03
3.676754e+07 +1.534094e-04 +1.852404e-03 +9.998466e-01 -1.852404e-03 +9.998466e-01 -1.852404e-03 +1.534094e-04 +1.852404e-03
3.715352e+07 +1.535158e-04 +1.880889e-03 +9.998465e-01 -1.880889e-03 +9.998465e-01 -1.880889e-03 +1.535158e-04 +1.880889e-03
3.821829e+07 +1.538158e-04 +1.958995e-03 +9.998462e-01 -1.958995e-03 +9.998462e-01 -1.958995e-03 +1.538158e-04 +1.958995e-03
3.845918e+07 +1.538850e-04 +1.976574e-03 +9.998461e-01 -1.976574e-03 +9.998461e-01 -1.976574e-03 +1.538850e-04 +1.976574e-03
3.972629e+07 +1.542569e-04 +2.068521e-03 +9.998457e-01 -2.068521e-03 +9.998457e-01 -2.068521e-03 +1.542569e-04 +2.068521e-03
3.981072e+07 +1.542822e-04 +2.074618e-03 +9.998457e-01 -2.074618e-03 +9.998457e-01 -2.074618e-03 +1.542822e-04 +2.074618e-03
4.120975e+07 +1.547095e-04 +2.175136e-03 +9.998453e-01 -2.175136e-03 +9.998453e-01 -2.175136e-03 +1.547095e-04 +2.175136e-03
4.129378e+07 +1.547356e-04 +2.181145e-03 +9.998453e-01 -2.181145e-03 +9.998453e-01 -2.181145e-03 +1.547356e-04 +2.181145e-03
4.265795e+07 +1.551687e-04 +2.278250e-03 +9.998448e-01 -2.278250e-03 +9.998448e-01 -2.278250e-03 +1.551687e-04 +2.278250e-03
4.292313e+07 +1.552547e-04 +2.297035e-03 +9.998447e-01 -2.297035e-03 +9.998447e-01 -2.297035e-03 +1.552547e-04 +2.297035e-03
4.415704e+07 +1.556622e-04 +2.384081e-03 +9.998443e-01 -2.384081e-03 +9.998443e-01 -2.384081e-03 +1.556622e-04 +2.384081e-03
4.461677e+07 +1.558172e-04 +2.416366e-03 +9.998442e-01 -2.416366e-03 +9.998442e-01 -2.416366e-03 +1.558172e-04 +2.416366e-03
4.570882e+07 +1.561923e-04 +2.492756e-03 +9.998438e-01 -2.492756e-03 +9.998438e-01 -2.492756e-03 +1.561923e-04 +2.492756e-03
4.637724e+07 +1.564266e-04 +2.539315e-03 +9.998436e-01 -2.539315e-03 +9.998436e-01 -2.539315e-03 +1.564266e-04 +2.539315e-03
4.731513e+07 +1.567615e-04 +2.604405e-03 +9.998432e-01 -2.604405e-03 +9.998432e-01 -2.604405e-03 +1.567615e-04 +2.604405e-03
4.820716e+07 +1.570865e-04 +2.666068e-03 +9.998429e-01 -2.666068e-03 +9.998429e-01 -2.666068e-03 +1.570865e-04 +2.666068e-03
4.897788e+07 +1.573725e-04 +2.719161e-03 +9.998426e-01 -2.719161e-03 +9.998426e-01 -2.719161e-03 +1.573725e-04 +2.719161e-03
5.010930e+07 +1.578009e-04 +2.796813e-03 +9.998422e-01 -2.796813e-03 +9.998422e-01 -2.796813e-03 +1.578009e-04 +2.796813e-03
5.069907e+07 +1.580283e-04 +2.837161e-03 +9.998420e-01 -2.837161e-03 +9.998420e-01 -2.837161e-03 +1.580283e-04 +2.837161e-03
5.208648e+07 +1.585740e-04 +2.931748e-03 +9.998414e-01 -2.931748e-03 +9.998414e-01 -2.931748e-03 +1.585740e-04 +2.931748e-03
5.248075e+07 +1.587319e-04 +2.958546e-03 +9.998413e-01 -2.958546e-03 +9.998413e-01 -2.958546e-03 +1.587319e-04 +2.958546e-03
5.414168e+07 +1.594105e-04 +3.071072e-03 +9.998406e-01 -3.071072e-03 +9.998406e-01 -3.071072e-03 +1.594105e-04 +3.071072e-03
5.432503e+07 +1.594867e-04 +3.083459e-03 +9.998405e-01 -3.083459e-03 +9.998405e-01 -3.083459e-03 +1.594867e-04 +3.083459e-03
5.623413e+07 +1.602964e-04 +3.212052e-03 +9.998397e-01 -3.212052e-03 +9.998397e-01 -3.212052e-03 +1.602964e-04 +3.212052e-03
5.627798e+07 +1.603154e-04 +3.214997e-03 +9.998397e-01 -3.214997e-03 +9.998397e-01 -3.214997e-03 +1.603154e-04 +3.214997e-03
5.821032e+07 +1.611648e-04 +3.344475e-03 +9.998388e-01 -3.344475e-03 +9.998388e-01 -3.344475e-03 +1.611648e-04 +3.344475e-03
5.849856e+07 +1.612940e-04 +3.363736e-03 +9.998387e-01 -3.363736e-03 +9.998387e-01 -3.363736e-03 +1.612940e-04 +3.363736e-03
6.025596e+07 +1.620961e-04 +3.480889e-03 +9.998379e-01 -3.480889e-03 +9.998379e-01 -3.480889e-03 +1.620961e-04 +3.480889e-03
6.080677e+07 +1.623524e-04 +3.517513e-03 +9.998376e-01 -3.517513e-03 +9.998376e-01 -3.517513e-03 +1.623524e-04 +3.517513e-03
6.237348e+07 +1.630946e-04 +3.621455e-03 +9.998369e-01 -3.621455e-03 +9.998369e-01 -3.621455e-03 +1.630946e-04 +3.621455e-03
6.320605e+07 +1.634968e-04 +3.676558e-03 +9.998365e-01 -3.676558e-03 +9.998365e-01 -3.676558e-03 +1.634968e-04 +3.676558e-03
6.456542e+07 +1.641652e-04 +3.766341e-03 +9.998358e-01 -3.766341e-03 +9.998358e-01 -3.766341e-03 +1.641652e-04 +3.766341e-03
6.570000e+07 +1.647340e-04 +3.841108e-03 +9.998353e-01 -3.841108e-03 +9.998353e-01 -3.841108e-03 +1.647340e-04 +3.841108e-03
6.683439e+07 +1.653129e-04 +3.915719e-03 +9.998347e-01 -3.915719e-03 +9.998347e-01 -3.915719e-03 +1.653129e-04 +3.915719e-03
6.829235e+07 +1.660716e-04 +4.011411e-03 +9.998339e-01 -4.011411e-03 +9.998339e-01 -4.011411e-03 +1.660716e-04 +4.011411e-03
6.918310e+07 +1.665433e-04 +4.069769e-03 +9.998335e-01 -4.069769e-03 +9.998335e-01 -4.069769e-03 +1.665433e-04 +4.069769e-03
7.098700e+07 +1.675175e-04 +4.187722e-03 +9.998325e-01 -4.187722e-03 +9.998325e-01 -4.187722e-03 +1.675175e-04 +4.187722e-03
7.161434e+07 +1.678622e-04 +4.228673e-03 +9.998321e-01 -4.228673e-03 +9.998321e-01 -4.228673e-03 +1.678622e-04 +4.228673e-03
7.378796e+07 +1.690803e-04 +4.370303e-03 +9.998309e-01 -4.370303e-03 +9.998309e-01 -4.370303e-03 +1.690803e-04 +4.370303e-03
7.413102e+07 +1.692759e-04 +4.392622e-03 +9.998307e-01 -4.392622e-03 +9.998307e-01 -4.392622e-03 +1.692759e-04 +4.392622e-03
7.669945e+07 +1.707695e-04 +4.559430e-03 +9.998292e-01 -4.559430e-03 +9.998292e-01 -4.559430e-03 +1.707695e-04 +4.559430e-03
7.673615e+07 +1.707912e-04 +4.561810e-03 +9.998292e-01 -4.561810e-03 +9.998292e-01 -4.561810e-03 +1.707912e-04 +4.561810e-03
7.943282e+07 +1.724152e-04 +4.736439e-03 +9.998276e-01 -4.736439e-03 +9.998276e-01 -4.736439e-03 +1.724152e-04 +4.736439e-03
7.972582e+07 +1.725951e-04 +4.755384e-03 +9.998274e-01 -4.755384e-03 +9.998274e-01 -4.755384e-03 +1.725951e-04 +4.755384e-03
8.222426e+07 +1.741558e-04 +4.916718e-03 +9.998258e-01 -4.916718e-03 +9.998258e-01 -4.916718e-03 +1.741558e-04 +4.916718e-03
8.287159e+07 +1.745681e-04 +4.958459e-03 +9.998254e-01 -4.958459e-03 +9.998254e-01 -4.958459e-03 +1.745681e-04 +4.958459e-03
8.511380e+07 +1.760213e-04 +5.102862e-03 +9.998240e-01 -5.102862e-03 +9.998240e-01 -5.102862e-03 +1.760213e-04 +5.102862e-03
8.614150e+07 +1.767004e-04 +5.168959e-03 +9.998233e-01 -5.168959e-03 +9.998233e-01 -5.168959e-03 +1.767004e-04 +5.168959e-03
8.810489e+07 +1.780205e-04 +5.295092e-03 +9.998220e-01 -5.295092e-03 +9.998220e-01 -5.295092e-03 +1.780205e-04 +5.295092e-03
8.954042e+07 +1.790046e-04 +5.387200e-03 +9.998210e-01 -5.387200e-03 +9.998210e-01 -5.387200e-03 +1.790046e-04 +5.387200e-03
9.120108e+07 +1.801630e-04 +5.493638e-03 +9.998198e-01 -5.493638e-03 +9.998198e-01 -5.493638e-03 +1.801630e-04 +5.493638e-03
9.307346e+07 +1.814947e-04 +5.613507e-03 +9.998185e-01 -5.613507e-03 +9.998185e-01 -5.613507e-03 +1.814947e-04 +5.613507e-03
9.440609e+07 +1.824590e-04 +5.698737e-03 +9.998175e-01 -5.698737e-03 +9.998175e-01 -5.698737e-03 +1.824590e-04 +5.698737e-03
9.674590e+07 +1.841855e-04 +5.848220e-03 +9.998158e-01 -5.848220e-03 +9.998158e-01 -5.848220e-03 +1.841855e-04 +5.848220e-03
9.772372e+07 +1.849195e-04 +5.910632e-03 +9.998151e-01 -5.910632e-03 +9.998151e-01 -5.910632e-03 +1.849195e-04 +5.910632e-03
1.005633e+08 +1.870931e-04 +6.091690e-03 +9.998129e-01 -6.091690e-03 +9.998129e-01 -6.091690e-03 +1.870931e-04 +6.091690e-03
1.011579e+08 +1.875563e-04 +6.129577e-03 +9.998124e-01 -6.129577e-03 +9.998124e-01 -6.129577e-03 +1.875563e-04 +6.129577e-03
1.045312e+08 +1.902351e-04 +6.344281e-03 +9.998098e-01 -6.344281e-03 +9.998098e-01 -6.344281e-03 +1.902351e-04 +6.344281e-03
1.047129e+08 +1.903818e-04 +6.355832e-03 +9.998096e-01 -6.355832e-03 +9.998096e-01 -6.355832e-03 +1.903818e-04 +6.355832e-03
1.083927e+08 +1.934096e-04 +6.589668e-03 +9.998066e-01 -6.589668e-03 +9.998066e-01 -6.589668e-03 +1.934096e-04 +6.589668e-03
1.086558e+08 +1.936301e-04 +6.606371e-03 +9.998064e-01 -6.606371e-03 +9.998064e-01 -6.606371e-03 +1.936301e-04 +6.606371e-03
1.122018e+08 +1.966542e-04 +6.831362e-03 +9.998033e-01 -6.831362e-03 +9.998033e-01 -6.831362e-03 +1.966542e-04 +6.831362e-03
1.129430e+08 +1.972986e-04 +6.878352e-03 +9.998027e-01 -6.878352e-03 +9.998027e-01 -6.878352e-03 +1.972986e-04 +6.878352e-03
1.161449e+08 +2.001310e-04 +7.081203e-03 +9.997999e-01 -7.081203e-03 +9.997999e-01 -7.081203e-03 +2.001310e-04 +7.081203e-03
1.173995e+08 +2.012625e-04 +7.160632e-03 +9.997987e-01 -7.160632e-03 +9.997987e-01 -7.160632e-03 +2.012625e-04 +7.160632e-03
1.202264e+08 +2.038566e-04 +7.339489e-03 +9.997961e-01 -7.339489e-03 +9.997961e-01 -7.339489e-03 +2.038566e-04 +7.339489e-03
1.220318e+08 +2.055455e-04 +7.453632e-03 +9.997945e-01 -7.453632e-03 +9.997945e-01 -7.453632e-03 +2.055455e-04 +7.453632e-03
1.244515e+08 +2.078488e-04 +7.606527e-03 +9.997922e-01 -7.606527e-03 +9.997922e-01 -7.606527e-03 +2.078488e-04 +7.606527e-03
1.268468e+08 +2.101735e-04 +7.757790e-03 +9.997898e-01 -7.757790e-03 +9.997898e-01 -7.757790e-03 +2.101735e-04 +7.757790e-03
1.288250e+08 +2.121266e-04 +7.882636e-03 +9.997879e-01 -7.882636e-03 +9.997879e-01 -7.882636e-03 +2.121266e-04 +7.882636e-03
1.318519e+08 +2.151739e-04 +8.073563e-03 +9.997848e-01 -8.073563e-03 +9.997848e-01 -8.073563e-03 +2.151739e-04 +8.073563e-03
1.333521e+08 +2.167105e-04 +8.168144e-03 +9.997833e-01 -8.168144e-03 +9.997833e-01 -8.168144e-03 +2.167105e-04 +8.168144e-03
1.370544e+08 +2.205770e-04 +8.401421e-03 +9.997794e-01 -8.401421e-03 +9.997794e-01 -8.401421e-03 +2.205770e-04 +8.401421e-03
1.380384e+08 +2.216224e-04 +8.463392e-03 +9.997784e-01 -8.463392e-03 +9.997784e-01 -8.463392e-03 +2.216224e-04 +8.463392e-03
1.424623e+08 +2.264148e-04 +8.741856e-03 +9.997736e-01 -8.741856e-03 +9.997736e-01 -8.741856e-03 +2.264148e-04 +8.741856e-03
1.428894e+08 +2.268856e-04 +8.768731e-03 +9.997731e-01 -8.768731e-03 +9.997731e-01 -8.768731e-03 +2.268856e-04 +8.768731e-03
1.479108e+08 +2.325253e-04 +9.084524e-03 +9.997675e-01 -9.084524e-03 +9.997675e-01 -9.084524e-03 +2.325253e-04 +9.084524e-03
1.480835e+08 +2.327226e-04 +9.095375e-03 +9.997673e-01 -9.095375e-03 +9.997673e-01 -9.095375e-03 +2.327226e-04 +9.095375e-03
1.531087e+08 +2.385684e-04 +9.411149e-03 +9.997614e-01 -9.411149e-03 +9.997614e-01 -9.411149e-03 +2.385684e-04 +9.411149e-03
1.539265e+08 +2.395380e-04 +9.462508e-03 +9.997605e-01 -9.462508e-03 +9.997605e-01 -9.462508e-03 +2.395380e-04 +9.462508e-03
1.584893e+08 +2.450437e-04 +9.748993e-03 +9.997550e-01 -9.748993e-03 +9.997550e-01 -9.748993e-03 +2.450437e-04 +9.748993e-03
1.600000e+08 +2.469019e-04 +9.843804e-03 +9.997531e-01 -9.843804e-03 +9.997531e-01 -9.843804e-03 +2.469019e-04 +9.843804e-03
1.640590e+08 +2.519821e-04 +1.009846e-02 +9.997480e-01 -1.009846e-02 +9.997480e-01 -1.009846e-02 +2.519821e-04 +1.009846e-02
1.698244e+08 +2.594167e-04 +1.045996e-02 +9.997406e-01 -1.045996e-02 +9.997406e-01 -1.045996e-02 +2.594167e-04 +1.045996e-02
1.757924e+08 +2.673830e-04 +1.083393e-02 +9.997326e-01 -1.083393e-02 +9.997326e-01 -1.083393e-02 +2.673830e-04 +1.083393e-02
1.819701e+08 +2.759190e-04 +1.122082e-02 +9.997241e-01 -1.122082e-02 +9.997241e-01 -1.122082e-02 +2.759190e-04 +1.122082e-02
1.883649e+08 +2.850654e-04 +1.162108e-02 +9.997149e-01 -1.162108e-02 +9.997149e-01 -1.162108e-02 +2.850654e-04 +1.162108e-02
1.949845e+08 +2.948659e-04 +1.203518e-02 +9.997051e-01 -1.203518e-02 +9.997051e-01 -1.203518e-02 +2.948659e-04 +1.203518e-02
2.018366e+08 +3.053671e-04 +1.246363e-02 +9.996946e-01 -1.246363e-02 +9.996946e-01 -1.246363e-02 +3.053671e-04 +1.246363e-02
2.089296e+08 +3.166192e-04 +1.290693e-02 +9.996834e-01 -1.290693e-02 +9.996834e-01 -1.290693e-02 +3.166192e-04 +1.290693e-02
2.162719e+08 +3.286757e-04 +1.336561e-02 +9.996713e-01 -1.336561e-02 +9.996713e-01 -1.336561e-02 +3.286757e-04 +1.336561e-02
2.238721e+08 +3.415943e-04 +1.384021e-02 +9.996584e-01 -1.384021e-02 +9.996584e-01 -1.384021e-02 +3.415943e-04 +1.384021e-02
2.317395e+08 +3.554365e-04 +1.433129e-02 +9.996446e-01 -1.433129e-02 +9.996446e-01 -1.433129e-02 +3.554365e-04 +1.433129e-02
2.398833e+08 +3.702683e-04 +1.483945e-02 +9.996297e-01 -1.483945e-02 +9.996297e-01 -1.483945e-02 +3.702683e-04 +1.483945e-02
2.483133e+08 +3.861605e-04 +1.536528e-02 +9.996138e-01 -1.536528e-02 +9.996138e-01 -1.536528e-02 +3.861605e-04 +1.536528e-02
2.570396e+08 +4.031887e-04 +1.590940e-02 +9.995968e-01 -1.590940e-02 +9.995968e-01 -1.590940e-02 +4.031887e-04 +1.590940e-02
2.660725e+08 +4.214341e-04 +1.647247e-02 +9.995786e-01 -1.647247e-02 +9.995786e-01 -1.647247e-02 +4.214341e-04 +1.647247e-02
2.754229e+08 +4.409837e-04 +1.705514e-02 +9.995590e-01 -1.705514e-02 +9.995590e-01 -1.705514e-02 +4.409837e-04 +1.705514e-02
2.851018e+08 +4.619307e-04 +1.765812e-02 +9.995381e-01 -1.765812e-02 +9.995381e-01 -1.765812e-02 +4.619307e-04 +1.765812e-02
2.951209e+08 +4.843749e-04 +1.828211e-02 +9.995156e-01 -1.828211e-02 +9.995156e-01 -1.828211e-02 +4.843749e-04 +1.828211e-02
3.054921e+08 +5.084231e-04 +1.892785e-02 +9.994916e-01 -1.892785e-02 +9.994916e-01 -1.892785e-02 +5.084231e-04 +1.892785e-02
3.162278e+08 +5.341901e-04 +1.959610e-02 +9.994658e-01 -1.959610e-02 +9.994658e-01 -1.959610e-02 +5.341901e-04 +1.959610e-02
3.273407e+08 +5.617984e-04 +2.028767e-02 +9.994382e-01 -2.028767e-02 +9.994382e-01 -2.028767e-02 +5.617984e-04 +2.028767e-02
3.388442e+08 +5.913795e-04 +2.100336e-02 +9.994086e-01 -2.100336e-02 +9.994086e-01 -2.100336e-02 +5.913795e-04 +2.100336e-02
3.507519e+08 +6.230744e-04 +2.174401e-02 +9.993769e-01 -2.174401e-02 +9.993769e-01 -2.174401e-02 +6.230744e-04 +2.174401e-02
3.630781e+08 +6.570338e-04 +2.251051e-02 +9.993430e-01 -2.251051e-02 +9.993430e-01 -2.251051e-02 +6.570338e-04 +2.251051e-02
3.758374e+08 +6.934195e-04 +2.330376e-02 +9.993066e-01 -2.330376e-02 +9.993066e-01 -2.330376e-02 +6.934195e-04 +2.330376e-02
3.890451e+08 +7.324045e-04 +2.412469e-02 +9.992676e-01 -2.412469e-02 +9.992676e-01 -2.412469e-02 +7.324045e-04 +2.412469e-02
4.027170e+08 +7.741743e-04 +2.497426e-02 +9.992258e-01 -2.497426e-02 +9.992258e-01 -2.497426e-02 +7.741743e-04 +2.497426e-02
4.168694e+08 +8.189277e-04 +2.585348e-02 +9.991811e-01 -2.585348e-02 +9.991811e-01 -2.585348e-02 +8.189277e-04 +2.585348e-02
4.315191e+08 +8.668773e-04 +2.676338e-02 +9.991331e-01 -2.676338e-02 +9.991331e-01 -2.676338e-02 +8.668773e-04 +2.676338e-02
4.466836e+08 +9.182511e-04 +2.770502e-02 +9.990817e-01 -2.770502e-02 +9.990817e-01 -2.770502e-02 +9.182511e-04 +2.770502e-02
4.623810e+08 +9.732934e-04 +2.867951e-02 +9.990267e-01 -2.867951e-02 +9.990267e-01 -2.867951e-02 +9.732934e-04 +2.867951e-02
4.786301e+08 +1.032265e-03 +2.968800e-02 +9.989677e-01 -2.968800e-02 +9.989677e-01 -2.968800e-02 +1.032265e-03 +2.968800e-02
4.954502e+08 +1.095447e-03 +3.073165e-02 +9.989046e-01 -3.073165e-02 +9.989046e-01 -3.073165e-02 +1.095447e-03 +3.073165e-02
5.128614e+08 +1.163139e-03 +3.181169e-02 +9.988369e-01 -3.181169e-02 +9.988369e-01 -3.181169e-02 +1.163139e-03 +3.181169e-02
5.308844e+08 +1.235662e-03 +3.292937e-02 +9.987643e-01 -3.292937e-02 +9.987643e-01 -3.292937e-02 +1.235662e-03 +3.292937e-02
5.495409e+08 +1.313360e-03 +3.408599e-02 +9.986866e-01 -3.408599e-02 +9.986866e-01 -3.408599e-02 +1.313360e-03 +3.408599e-02
5.688529e+08 +1.396602e-03 +3.528291e-02 +9.986034e-01 -3.528291e-02 +9.986034e-01 -3.528291e-02 +1.396602e-03 +3.528291e-02
5.888437e+08 +1.485782e-03 +3.652149e-02 +9.985142e-01 -3.652149e-02 +9.985142e-01 -3.652149e-02 +1.485782e-03 +3.652149e-02
6.095369e+08 +1.581322e-03 +3.780318e-02 +9.984187e-01 -3.780318e-02 +9.984187e-01 -3.780318e-02 +1.581322e-03 +3.780318e-02
6.309573e+08 +1.683674e-03 +3.912946e-02 +9.983163e-01 -3.912946e-02 +9.983163e-01 -3.912946e-02 +1.683674e-03 +3.912946e-02
6.531306e+08 +1.793324e-03 +4.050184e-02 +9.982067e-01 -4.050184e-02 +9.982067e-01 -4.050184e-02 +1.793324e-03 +4.050184e-02
6.760830e+08 +1.910789e-03 +4.192191e-02 +9.980892e-01 -4.192191e-02 +9.980892e-01 -4.192191e-02 +1.910789e-03 +4.192191e-02
6.998420e+08 +2.036624e-03 +4.339129e-02 +9.979634e-01 -4.339129e-02 +9.979634e-01 -4.339129e-02 +2.036624e-03 +4.339129e-02
7.244360e+08 +2.171424e-03 +4.491166e-02 +9.978286e-01 -4.491166e-02 +9.978286e-01 -4.491166e-02 +2.171424e-03 +4.491166e-02
7.498942e+08 +2.315824e-03 +4.648473e-02 +9.976842e-01 -4.648473e-02 +9.976842e-01 -4.648473e-02 +2.315824e-03 +4.648473e-02
7.762471e+08 +2.470505e-03 +4.811231e-02 +9.975295e-01 -4.811231e-02 +9.975295e-01 -4.811231e-02 +2.470505e-03 +4.811231e-02
8.035261e+08 +2.636195e-03 +4.979622e-02 +9.973638e-01 -4.979622e-02 +9.973638e-01 -4.979622e-02 +2.636195e-03 +4.979622e-02
8.317638e+08 +2.813675e-03 +5.153836e-02 +9.971863e-01 -5.153836e-02 +9.971863e-01 -5.153836e-02 +2.813675e-03 +5.153836e-02
8.609938e+08 +3.003778e-03 +5.334068e-02 +9.969962e-01 -5.334068e-02 +9.969962e-01 -5.334068e-02 +3.003778e-03 +5.334068e-02
8.912509e+08 +3.207396e-03 +5.520518e-02 +9.967926e-01 -5.520518e-02 +9.967926e-01 -5.520518e-02 +3.207396e-03 +5.520518e-02
9.225714e+08 +3.425485e-03 +5.713394e-02 +9.965745e-01 -5.713394e-02 +9.965745e-01 -5.713394e-02 +3.425485e-03 +5.713394e-02
9.549926e+08 +3.659065e-03 +5.912907e-02 +9.963409e-01 -5.912907e-02 +9.963409e-01 -5.912907e-02 +3.659065e-03 +5.912907e-02
9.885531e+08 +3.909229e-03 +6.119278e-02 +9.960908e-01 -6.119278e-02 +9.960908e-01 -6.119278e-02 +3.909229e-03 +6.119278e-02
1.023293e+09 +4.177146e-03 +6.332729e-02 +9.958229e-01 -6.332729e-02 +9.958229e-01 -6.332729e-02 +4.177146e-03 +6.332729e-02
1.059254e+09 +4.464063e-03 +6.553493e-02 +9.955359e-01 -6.553493e-02 +9.955359e-01 -6.553493e-02 +4.464063e-03 +6.553493e-02
1.096478e+09 +4.771318e-03 +6.781807e-02 +9.952287e-01 -6.781807e-02 +9.952287e-01 -6.781807e-02 +4.771318e-03 +6.781807e-02
1.135011e+09 +5.100337e-03 +7.017913e-02 +9.948997e-01 -7.017913e-02 +9.948997e-01 -7.017913e-02 +5.100337e-03 +7.017913e-02
1.174898e+09 +5.452645e-03 +7.262062e-02 +9.945474e-01 -7.262062e-02 +9.945474e-01 -7.262062e-02 +5.452645e-03 +7.262062e-02
1.216186e+09 +5.829874e-03 +7.514508e-02 +9.941701e-01 -7.514508e-02 +9.941701e-01 -7.514508e-02 +5.829874e-03 +7.514508e-02
1.258925e+09 +6.233764e-03 +7.775514e-02 +9.937662e-01 -7.775514e-02 +9.937662e-01 -7.775514e-02 +6.233764e-03 +7.775514e-02
1.303167e+09 +6.666176e-03 +8.045347e-02 +9.933338e-01 -8.045347e-02 +9.933338e-01 -8.045347e-02 +6.666176e-03 +8.045347e-02
1.348963e+09 +7.129097e-03 +8.324281e-02 +9.928709e-01 -8.324281e-02 +9.928709e-01 -8.324281e-02 +7.129097e-03 +8.324281e-02
1.396368e+09 +7.624647e-03 +8.612594e-02 +9.923754e-01 -8.612594e-02 +9.923754e-01 -8.612594e-02 +7.624647e-03 +8.612594e-02
1.445440e+09 +8.155089e-03 +8.910572e-02 +9.918449e-01 -8.910572e-02 +9.918449e-01 -8.910572e-02 +8.155089e-03 +8.910572e-02
1.496236e+09 +8.722839e-03 +9.218504e-02 +9.912772e-01 -9.218504e-02 +9.912772e-01 -9.218504e-02 +8.722839e-03 +9.218504e-02
1.548817e+09 +9.330474e-03 +9.536686e-02 +9.906695e-01 -9.536686e-02 +9.906695e-01 -9.536686e-02 +9.330474e-03 +9.536686e-02
1.603245e+09 +9.980740e-03 +9.865416e-02 +9.900193e-01 -9.865416e-02 +9.900193e-01 -9.865416e-02 +9.980740e-03 +9.865416e-02
1.659587e+09 +1.067657e-02 +1.020500e-01 +9.893234e-01 -1.020500e-01 +9.893234e-01 -1.020500e-01 +1.067657e-02 +1.020500e-01
1.717908e+09 +1.142107e-02 +1.055574e-01 +9.885789e-01 -1.055574e-01 +9.885789e-01 -1.055574e-01 +1.142107e-02 +1.055574e-01
1.778279e+09 +1.221758e-02 +1.091795e-01 +9.877824e-01 -1.091795e-01 +9.877824e-01 -1.091795e-01 +1.221758e-02 +1.091795e-01
1.840772e+09 +1.306963e-02 +1.129194e-01 +9.869304e-01 -1.129194e-01 +9.869304e-01 -1.129194e-01 +1.306963e-02 +1.129194e-01
1.905461e+09 +1.398099e-02 +1.167803e-01 +9.860190e-01 -1.167803e-01 +9.860190e-01 -1.167803e-01 +1.398099e-02 +1.167803e-01
1.972423e+09 +1.495567e-02 +1.207653e-01 +9.850443e-01 -1.207653e-01 +9.850443e-01 -1.207653e-01 +1.495567e-02 +1.207653e-01
2.041738e+09 +1.599791e-02 +1.248776e-01 +9.840021e-01 -1.248776e-01 +9.840021e-01 -1.248776e-01 +1.599791e-02 +1.248776e-01
2.113489e+09 +1.711226e-02 +1.291202e-01 +9.828877e-01 -1.291202e-01 +9.828877e-01 -1.291202e-01 +1.711226e-02 +1.291202e-01
2.187762e+09 +1.830350e-02 +1.334962e-01 +9.816965e-01 -1.334962e-01 +9.816965e-01 -1.334962e-01 +1.830350e-02 +1.334962e-01
2.264644e+09 +1.957673e-02 +1.380089e-01 +9.804233e-01 -1.380089e-01 +9.804233e-01 -1.380089e-01 +1.957673e-02 +1.380089e-01
2.344229e+09 +2.093737e-02 +1.426610e-01 +9.790626e-01 -1.426610e-01 +9.790626e-01 -1.426610e-01 +2.093737e-02 +1.426610e-01
2.426610e+09 +2.239114e-02 +1.474556e-01 +9.776089e-01 -1.474556e-01 +9.776089e-01 -1.474556e-01 +2.239114e-02 +1.474556e-01
2.511886e+09 +2.394409e-02 +1.523955e-01 +9.760559e-01 -1.523955e-01 +9.760559e-01 -1.523955e-01 +2.394409e-02 +1.523955e-01
2.600160e+09 +2.560264e-02 +1.574834e-01 +9.743974e-01 -1.574834e-01 +9.743974e-01 -1.574834e-01 +2.560264e-02 +1.574834e-01
2.691535e+09 +2.737357e-02 +1.627218e-01 +9.726264e-01 -1.627218e-01 +9.726264e-01 -1.627218e-01 +2.737357e-02 +1.627218e-01
2.786121e+09 +2.926402e-02 +1.681132e-01 +9.707360e-01 -1.681132e-01 +9.707360e-01 -1.681132e-01 +2.926402e-02 +1.681132e-01
2.884032e+09 +3.128154e-02 +1.736598e-01 +9.687185e-01 -1.736598e-01 +9.687185e-01 -1.736598e-01 +3.128154e-02 +1.736598e-01
2.985383e+09 +3.343406e-02 +1.793635e-01 +9.665659e-01 -1.793635e-01 +9.665659e-01 -1.793635e-01 +3.343406e-02 +1.793635e-01
3.090295e+09 +3.572994e-02 +1.852261e-01 +9.642701e-01 -1.852261e-01 +9.642701e-01 -1.852261e-01 +3.572994e-02 +1.852261e-01
3.198895e+09 +3.817794e-02 +1.912489e-01 +9.618221e-01 -1.912489e-01 +9.618221e-01 -1.912489e-01 +3.817794e-02 +1.912489e-01
3.311311e+09 +4.078726e-02 +1.974330e-01 +9.592127e-01 -1.974330e-01 +9.592127e-01 -1.974330e-01 +4.078726e-02 +1.974330e-01
3.427678e+09 +4.356754e-02 +2.037792e-01 +9.564325e-01 -2.037792e-01 +9.564325e-01 -2.037792e-01 +4.356754e-02 +2.037792e-01
3.548134e+09 +4.652883e-02 +2.102876e-01 +9.534712e-01 -2.102876e-01 +9.534712e-01 -2.102876e-01 +4.652883e-02 +2.102876e-01
3.672823e+09 +4.968162e-02 +2.169581e-01 +9.503184e-01 -2.169581e-01 +9.503184e-01 -2.169581e-01 +4.968162e-02 +2.169581e-01
3.801894e+09 +5.303683e-02 +2.237899e-01 +9.469632e-01 -2.237899e-01 +9.469632e-01 -2.237899e-01 +5.303683e-02 +2.237899e-01
3.935501e+09 +5.660582e-02 +2.307815e-01 +9.433942e-01 -2.307815e-01 +9.433942e-01 -2.307815e-01 +5.660582e-02 +2.307815e-01
4.073803e+09 +6.040032e-02 +2.379311e-01 +9.395997e-01 -2.379311e-01 +9.395997e-01 -2.379311e-01 +6.040032e-02 +2.379311e-01
4.216965e+09 +6.443247e-02 +2.452358e-01 +9.355675e-01 -2.452358e-01 +9.355675e-01 -2.452358e-01 +6.443247e-02 +2.452358e-01
4.365158e+09 +6.871476e-02 +2.526922e-01 +9.312852e-01 -2.526922e-01 +9.312852e-01 -2.526922e-01 +6.871476e-02 +2.526922e-01
4.518559e+09 +7.326002e-02 +2.602960e-01 +9.267400e-01 -2.602960e-01 +9.267400e-01 -2.602960e-01 +7.326002e-02 +2.602960e-01
4.677351e+09 +7.808138e-02 +2.680418e-01 +9.219186e-01 -2.680418e-01 +9.219186e-01 -2.680418e-01 +7.808138e-02 +2.680418e-01
4.841724e+09 +8.319218e-02 +2.759234e-01 +9.168078e-01 -2.759234e-01 +9.168078e-01 -2.759234e-01 +8.319218e-02 +2.759234e-01
5.011872e+09 +8.860599e-02 +2.839336e-01 +9.113940e-01 -2.839336e-01 +9.113940e-01 -2.839336e-01 +8.860599e-02 +2.839336e-01
5.188000e+09 +9.433648e-02 +2.920638e-01 +9.056635e-01 -2.920638e-01 +9.056635e-01 -2.920638e-01 +9.433648e-02 +2.920638e-01
5.370318e+09 +1.003974e-01 +3.003045e-01 +8.996026e-01 -3.003045e-01 +8.996026e-01 -3.003045e-01 +1.003974e-01 +3.003045e-01
5.559043e+09 +1.068023e-01 +3.086448e-01 +8.931977e-01 -3.086448e-01 +8.931977e-01 -3.086448e-01 +1.068023e-01 +3.086448e-01
5.754399e+09 +1.135649e-01 +3.170725e-01 +8.864351e-01 -3.170725e-01 +8.864351e-01 -3.170725e-01 +1.135649e-01 +3.170725e-01
5.956621e+09 +1.206984e-01 +3.255740e-01 +8.793016e-01 -3.255740e-01 +8.793016e-01 -3.255740e-01 +1.206984e-01 +3.255740e-01
6.165950e+09 +1.282158e-01 +3.341343e-01 +8.717842e-01 -3.341343e-01 +8.717842e-01 -3.341343e-01 +1.282158e-01 +3.341343e-01
6.382635e+09 +1.361294e-01 +3.427370e-01 +8.638706e-01 -3.427370e-01 +8.638706e-01 -3.427370e-01 +1.361294e-01 +3.427370e-01
6.606934e+09 +1.444511e-01 +3.513640e-01 +8.555489e-01 -3.513640e-01 +8.555489e-01 -3.513640e-01 +1.444511e-01 +3.513640e-01
6.839116e+09 +1.531919e-01 +3.599960e-01 +8.468081e-01 -3.599960e-01 +8.468081e-01 -3.599960e-01 +1.531919e-01 +3.599960e-01
7.079458e+09 +1.623617e-01 +3.686119e-01 +8.376383e-01 -3.686119e-01 +8.376383e-01 -3.686119e-01 +1.623617e-01 +3.686119e-01
7.328245e+09 +1.719694e-01 +3.771893e-01 +8.280306e-01 -3.771893e-01 +8.280306e-01 -3.771893e-01 +1.719694e-01 +3.771893e-01
7.585776e+09 +1.820227e-01 +3.857042e-01 +8.179773e-01 -3.857042e-01 +8.179773e-01 -3.857042e-01 +1.820227e-01 +3.857042e-01
7.852356e+09 +1.925275e-01 +3.941314e-01 +8.074725e-01 -3.941314e-01 +8.074725e-01 -3.941314e-01 +1.925275e-01 +3.941314e-01
8.128305e+09 +2.034882e-01 +4.024441e-01 +7.965118e-01 -4.024441e-01 +7.965118e-01 -4.024441e-01 +2.034882e-01 +4.024441e-01
8.413951e+09 +2.149073e-01 +4.106146e-01 +7.850927e-01 -4.106146e-01 +7.850927e-01 -4.106146e-01 +2.149073e-01 +4.106146e-01
8.709636e+09 +2.267851e-01 +4.186140e-01 +7.732149e-01 -4.186140e-01 +7.732149e-01 -4.186140e-01 +2.267851e-01 +4.186140e-01
9.015711e+09 +2.391200e-01 +4.264124e-01 +7.608800e-01 -4.264124e-01 +7.608800e-01 -4.264124e-01 +2.391200e-01 +4.264124e-01
9.332543e+09 +2.519076e-01 +4.339792e-01 +7.480924e-01 -4.339792e-01 +7.480924e-01 -4.339792e-01 +2.519076e-01 +4.339792e-01
9.660509e+09 +2.651412e-01 +4.412835e-01 +7.348588e-01 -4.412835e-01 +7.348588e-01 -4.412835e-01 +2.651412e-01 +4.412835e-01
1.000000e+10 +2.788113e-01 +4.482939e-01 +7.211887e-01 -4.482939e-01 +7.211887e-01 -4.482939e-01 +2.788113e-01 +4.482939e-01
