! Touchstone 2-port S-parameters  (series-through model)
! Part: SRP6540_4R7_4u7H_power
! Generated: 2026-06-14 12:05 UTC  by s2p tool
! Reference impedance: 50.0 Ohm
! Cp estimated from SRF: 1.276 pF (SRF=65.0 MHz) [PHYSICS ESTIMATE]
! Rp (core loss) from Q=30 @ 2.5 MHz: 2.2 kOhm [DATASHEET FIT]
! ESTIMATED / behavioral model - NOT manufacturer-measured data.
# Hz S RI R 50
! freq        ReS11      ImS11      ReS21      ImS21      ReS12      ImS12      ReS22      ImS22
1.000000e+04 +2.950208e-04 +2.951304e-03 +9.997050e-01 -2.951304e-03 +9.997050e-01 -2.951304e-03 +2.950208e-04 +2.951304e-03
1.035142e+04 +2.956721e-04 +3.055018e-03 +9.997043e-01 -3.055018e-03 +9.997043e-01 -3.055018e-03 +2.956721e-04 +3.055018e-03
1.071519e+04 +2.963699e-04 +3.162375e-03 +9.997036e-01 -3.162375e-03 +9.997036e-01 -3.162375e-03 +2.963699e-04 +3.162375e-03
1.109175e+04 +2.971177e-04 +3.273505e-03 +9.997029e-01 -3.273505e-03 +9.997029e-01 -3.273505e-03 +2.971177e-04 +3.273505e-03
1.148154e+04 +2.979189e-04 +3.388541e-03 +9.997021e-01 -3.388541e-03 +9.997021e-01 -3.388541e-03 +2.979189e-04 +3.388541e-03
1.188502e+04 +2.987775e-04 +3.507618e-03 +9.997012e-01 -3.507618e-03 +9.997012e-01 -3.507618e-03 +2.987775e-04 +3.507618e-03
1.230269e+04 +2.996974e-04 +3.630880e-03 +9.997003e-01 -3.630880e-03 +9.997003e-01 -3.630880e-03 +2.996974e-04 +3.630880e-03
1.273503e+04 +3.006831e-04 +3.758473e-03 +9.996993e-01 -3.758473e-03 +9.996993e-01 -3.758473e-03 +3.006831e-04 +3.758473e-03
1.318257e+04 +3.017393e-04 +3.890550e-03 +9.996983e-01 -3.890550e-03 +9.996983e-01 -3.890550e-03 +3.017393e-04 +3.890550e-03
1.364583e+04 +3.028711e-04 +4.027267e-03 +9.996971e-01 -4.027267e-03 +9.996971e-01 -4.027267e-03 +3.028711e-04 +4.027267e-03
1.412538e+04 +3.040838e-04 +4.168789e-03 +9.996959e-01 -4.168789e-03 +9.996959e-01 -4.168789e-03 +3.040838e-04 +4.168789e-03
1.462177e+04 +3.053832e-04 +4.315283e-03 +9.996946e-01 -4.315283e-03 +9.996946e-01 -4.315283e-03 +3.053832e-04 +4.315283e-03
1.513561e+04 +3.067756e-04 +4.466925e-03 +9.996932e-01 -4.466925e-03 +9.996932e-01 -4.466925e-03 +3.067756e-04 +4.466925e-03
1.566751e+04 +3.082675e-04 +4.623895e-03 +9.996917e-01 -4.623895e-03 +9.996917e-01 -4.623895e-03 +3.082675e-04 +4.623895e-03
1.621810e+04 +3.098661e-04 +4.786381e-03 +9.996901e-01 -4.786381e-03 +9.996901e-01 -4.786381e-03 +3.098661e-04 +4.786381e-03
1.678804e+04 +3.115791e-04 +4.954576e-03 +9.996884e-01 -4.954576e-03 +9.996884e-01 -4.954576e-03 +3.115791e-04 +4.954576e-03
1.737801e+04 +3.134146e-04 +5.128681e-03 +9.996866e-01 -5.128681e-03 +9.996866e-01 -5.128681e-03 +3.134146e-04 +5.128681e-03
1.798871e+04 +3.153813e-04 +5.308903e-03 +9.996846e-01 -5.308903e-03 +9.996846e-01 -5.308903e-03 +3.153813e-04 +5.308903e-03
1.862087e+04 +3.174887e-04 +5.495457e-03 +9.996825e-01 -5.495457e-03 +9.996825e-01 -5.495457e-03 +3.174887e-04 +5.495457e-03
1.927525e+04 +3.197467e-04 +5.688566e-03 +9.996803e-01 -5.688566e-03 +9.996803e-01 -5.688566e-03 +3.197467e-04 +5.688566e-03
1.995262e+04 +3.221663e-04 +5.888460e-03 +9.996778e-01 -5.888460e-03 +9.996778e-01 -5.888460e-03 +3.221663e-04 +5.888460e-03
2.065380e+04 +3.247589e-04 +6.095377e-03 +9.996752e-01 -6.095377e-03 +9.996752e-01 -6.095377e-03 +3.247589e-04 +6.095377e-03
2.137962e+04 +3.275369e-04 +6.309563e-03 +9.996725e-01 -6.309563e-03 +9.996725e-01 -6.309563e-03 +3.275369e-04 +6.309563e-03
2.213095e+04 +3.305136e-04 +6.531274e-03 +9.996695e-01 -6.531274e-03 +9.996695e-01 -6.531274e-03 +3.305136e-04 +6.531274e-03
2.290868e+04 +3.337031e-04 +6.760775e-03 +9.996663e-01 -6.760775e-03 +9.996663e-01 -6.760775e-03 +3.337031e-04 +6.760775e-03
2.371374e+04 +3.371207e-04 +6.998338e-03 +9.996629e-01 -6.998338e-03 +9.996629e-01 -6.998338e-03 +3.371207e-04 +6.998338e-03
2.454709e+04 +3.407827e-04 +7.244248e-03 +9.996592e-01 -7.244248e-03 +9.996592e-01 -7.244248e-03 +3.407827e-04 +7.244248e-03
2.540973e+04 +3.447066e-04 +7.498795e-03 +9.996553e-01 -7.498795e-03 +9.996553e-01 -7.498795e-03 +3.447066e-04 +7.498795e-03
2.630268e+04 +3.489111e-04 +7.762285e-03 +9.996511e-01 -7.762285e-03 +9.996511e-01 -7.762285e-03 +3.489111e-04 +7.762285e-03
2.722701e+04 +3.534163e-04 +8.035031e-03 +9.996466e-01 -8.035031e-03 +9.996466e-01 -8.035031e-03 +3.534163e-04 +8.035031e-03
2.818383e+04 +3.582436e-04 +8.317358e-03 +9.996418e-01 -8.317358e-03 +9.996418e-01 -8.317358e-03 +3.582436e-04 +8.317358e-03
2.917427e+04 +3.634161e-04 +8.609601e-03 +9.996366e-01 -8.609601e-03 +9.996366e-01 -8.609601e-03 +3.634161e-04 +8.609601e-03
3.019952e+04 +3.689585e-04 +8.912110e-03 +9.996310e-01 -8.912110e-03 +9.996310e-01 -8.912110e-03 +3.689585e-04 +8.912110e-03
3.126079e+04 +3.748972e-04 +9.225243e-03 +9.996251e-01 -9.225243e-03 +9.996251e-01 -9.225243e-03 +3.748972e-04 +9.225243e-03
3.235937e+04 +3.812605e-04 +9.549375e-03 +9.996187e-01 -9.549375e-03 +9.996187e-01 -9.549375e-03 +3.812605e-04 +9.549375e-03
3.349654e+04 +3.880789e-04 +9.884890e-03 +9.996119e-01 -9.884890e-03 +9.996119e-01 -9.884890e-03 +3.880789e-04 +9.884890e-03
3.467369e+04 +3.953848e-04 +1.023219e-02 +9.996046e-01 -1.023219e-02 +9.996046e-01 -1.023219e-02 +3.953848e-04 +1.023219e-02
3.589219e+04 +4.032130e-04 +1.059168e-02 +9.995968e-01 -1.059168e-02 +9.995968e-01 -1.059168e-02 +4.032130e-04 +1.059168e-02
3.715352e+04 +4.116011e-04 +1.096380e-02 +9.995884e-01 -1.096380e-02 +9.995884e-01 -1.096380e-02 +4.116011e-04 +1.096380e-02
3.845918e+04 +4.205888e-04 +1.134899e-02 +9.995794e-01 -1.134899e-02 +9.995794e-01 -1.134899e-02 +4.205888e-04 +1.134899e-02
3.981072e+04 +4.302192e-04 +1.174770e-02 +9.995698e-01 -1.174770e-02 +9.995698e-01 -1.174770e-02 +4.302192e-04 +1.174770e-02
4.120975e+04 +4.405381e-04 +1.216041e-02 +9.995595e-01 -1.216041e-02 +9.995595e-01 -1.216041e-02 +4.405381e-04 +1.216041e-02
4.265795e+04 +4.515947e-04 +1.258760e-02 +9.995484e-01 -1.258760e-02 +9.995484e-01 -1.258760e-02 +4.515947e-04 +1.258760e-02
4.415704e+04 +4.634419e-04 +1.302980e-02 +9.995366e-01 -1.302980e-02 +9.995366e-01 -1.302980e-02 +4.634419e-04 +1.302980e-02
4.570882e+04 +4.761360e-04 +1.348752e-02 +9.995239e-01 -1.348752e-02 +9.995239e-01 -1.348752e-02 +4.761360e-04 +1.348752e-02
4.731513e+04 +4.897376e-04 +1.396130e-02 +9.995103e-01 -1.396130e-02 +9.995103e-01 -1.396130e-02 +4.897376e-04 +1.396130e-02
4.897788e+04 +5.043116e-04 +1.445171e-02 +9.994957e-01 -1.445171e-02 +9.994957e-01 -1.445171e-02 +5.043116e-04 +1.445171e-02
5.069907e+04 +5.199274e-04 +1.495933e-02 +9.994801e-01 -1.495933e-02 +9.994801e-01 -1.495933e-02 +5.199274e-04 +1.495933e-02
5.248075e+04 +5.366595e-04 +1.548476e-02 +9.994633e-01 -1.548476e-02 +9.994633e-01 -1.548476e-02 +5.366595e-04 +1.548476e-02
5.432503e+04 +5.545876e-04 +1.602863e-02 +9.994454e-01 -1.602863e-02 +9.994454e-01 -1.602863e-02 +5.545876e-04 +1.602863e-02
5.623413e+04 +5.737971e-04 +1.659158e-02 +9.994262e-01 -1.659158e-02 +9.994262e-01 -1.659158e-02 +5.737971e-04 +1.659158e-02
5.821032e+04 +5.943797e-04 +1.717427e-02 +9.994056e-01 -1.717427e-02 +9.994056e-01 -1.717427e-02 +5.943797e-04 +1.717427e-02
6.025596e+04 +6.164333e-04 +1.777741e-02 +9.993836e-01 -1.777741e-02 +9.993836e-01 -1.777741e-02 +6.164333e-04 +1.777741e-02
6.237348e+04 +6.400631e-04 +1.840169e-02 +9.993599e-01 -1.840169e-02 +9.993599e-01 -1.840169e-02 +6.400631e-04 +1.840169e-02
6.456542e+04 +6.653815e-04 +1.904786e-02 +9.993346e-01 -1.904786e-02 +9.993346e-01 -1.904786e-02 +6.653815e-04 +1.904786e-02
6.683439e+04 +6.925093e-04 +1.971669e-02 +9.993075e-01 -1.971669e-02 +9.993075e-01 -1.971669e-02 +6.925093e-04 +1.971669e-02
6.918310e+04 +7.215755e-04 +2.040896e-02 +9.992784e-01 -2.040896e-02 +9.992784e-01 -2.040896e-02 +7.215755e-04 +2.040896e-02
7.161434e+04 +7.527185e-04 +2.112548e-02 +9.992473e-01 -2.112548e-02 +9.992473e-01 -2.112548e-02 +7.527185e-04 +2.112548e-02
7.413102e+04 +7.860866e-04 +2.186712e-02 +9.992139e-01 -2.186712e-02 +9.992139e-01 -2.186712e-02 +7.860866e-04 +2.186712e-02
7.673615e+04 +8.218386e-04 +2.263473e-02 +9.991782e-01 -2.263473e-02 +9.991782e-01 -2.263473e-02 +8.218386e-04 +2.263473e-02
7.943282e+04 +8.601447e-04 +2.342923e-02 +9.991399e-01 -2.342923e-02 +9.991399e-01 -2.342923e-02 +8.601447e-04 +2.342923e-02
8.222426e+04 +9.011869e-04 +2.425154e-02 +9.990988e-01 -2.425154e-02 +9.990988e-01 -2.425154e-02 +9.011869e-04 +2.425154e-02
8.511380e+04 +9.451606e-04 +2.510264e-02 +9.990548e-01 -2.510264e-02 +9.990548e-01 -2.510264e-02 +9.451606e-04 +2.510264e-02
8.810489e+04 +9.922748e-04 +2.598353e-02 +9.990077e-01 -2.598353e-02 +9.990077e-01 -2.598353e-02 +9.922748e-04 +2.598353e-02
9.120108e+04 +1.042753e-03 +2.689523e-02 +9.989572e-01 -2.689523e-02 +9.989572e-01 -2.689523e-02 +1.042753e-03 +2.689523e-02
9.440609e+04 +1.096836e-03 +2.783881e-02 +9.989032e-01 -2.783881e-02 +9.989032e-01 -2.783881e-02 +1.096836e-03 +2.783881e-02
9.772372e+04 +1.154780e-03 +2.881539e-02 +9.988452e-01 -2.881539e-02 +9.988452e-01 -2.881539e-02 +1.154780e-03 +2.881539e-02
1.011579e+05 +1.216861e-03 +2.982609e-02 +9.987831e-01 -2.982609e-02 +9.987831e-01 -2.982609e-02 +1.216861e-03 +2.982609e-02
1.047129e+05 +1.283373e-03 +3.087210e-02 +9.987166e-01 -3.087210e-02 +9.987166e-01 -3.087210e-02 +1.283373e-03 +3.087210e-02
1.083927e+05 +1.354631e-03 +3.195463e-02 +9.986454e-01 -3.195463e-02 +9.986454e-01 -3.195463e-02 +1.354631e-03 +3.195463e-02
1.122018e+05 +1.430973e-03 +3.307495e-02 +9.985690e-01 -3.307495e-02 +9.985690e-01 -3.307495e-02 +1.430973e-03 +3.307495e-02
1.161449e+05 +1.512763e-03 +3.423435e-02 +9.984872e-01 -3.423435e-02 +9.984872e-01 -3.423435e-02 +1.512763e-03 +3.423435e-02
1.202264e+05 +1.600386e-03 +3.543418e-02 +9.983996e-01 -3.543418e-02 +9.983996e-01 -3.543418e-02 +1.600386e-03 +3.543418e-02
1.244515e+05 +1.694259e-03 +3.667582e-02 +9.983057e-01 -3.667582e-02 +9.983057e-01 -3.667582e-02 +1.694259e-03 +3.667582e-02
1.288250e+05 +1.794824e-03 +3.796070e-02 +9.982052e-01 -3.796070e-02 +9.982052e-01 -3.796070e-02 +1.794824e-03 +3.796070e-02
1.333521e+05 +1.902559e-03 +3.929030e-02 +9.980974e-01 -3.929030e-02 +9.980974e-01 -3.929030e-02 +1.902559e-03 +3.929030e-02
1.380384e+05 +2.017972e-03 +4.066614e-02 +9.979820e-01 -4.066614e-02 +9.979820e-01 -4.066614e-02 +2.017972e-03 +4.066614e-02
1.428894e+05 +2.141608e-03 +4.208980e-02 +9.978584e-01 -4.208980e-02 +9.978584e-01 -4.208980e-02 +2.141608e-03 +4.208980e-02
1.479108e+05 +2.274052e-03 +4.356290e-02 +9.977259e-01 -4.356290e-02 +9.977259e-01 -4.356290e-02 +2.274052e-03 +4.356290e-02
1.531087e+05 +2.415927e-03 +4.508711e-02 +9.975841e-01 -4.508711e-02 +9.975841e-01 -4.508711e-02 +2.415927e-03 +4.508711e-02
1.584893e+05 +2.567902e-03 +4.666415e-02 +9.974321e-01 -4.666415e-02 +9.974321e-01 -4.666415e-02 +2.567902e-03 +4.666415e-02
1.640590e+05 +2.730693e-03 +4.829581e-02 +9.972693e-01 -4.829581e-02 +9.972693e-01 -4.829581e-02 +2.730693e-03 +4.829581e-02
1.698244e+05 +2.905066e-03 +4.998391e-02 +9.970949e-01 -4.998391e-02 +9.970949e-01 -4.998391e-02 +2.905066e-03 +4.998391e-02
1.757924e+05 +3.091839e-03 +5.173035e-02 +9.969082e-01 -5.173035e-02 +9.969082e-01 -5.173035e-02 +3.091839e-03 +5.173035e-02
1.819701e+05 +3.291889e-03 +5.353706e-02 +9.967081e-01 -5.353706e-02 +9.967081e-01 -5.353706e-02 +3.291889e-03 +5.353706e-02
1.883649e+05 +3.506154e-03 +5.540605e-02 +9.964938e-01 -5.540605e-02 +9.964938e-01 -5.540605e-02 +3.506154e-03 +5.540605e-02
1.949845e+05 +3.735637e-03 +5.733937e-02 +9.962644e-01 -5.733937e-02 +9.962644e-01 -5.733937e-02 +3.735637e-03 +5.733937e-02
2.018366e+05 +3.981410e-03 +5.933913e-02 +9.960186e-01 -5.933913e-02 +9.960186e-01 -5.933913e-02 +3.981410e-03 +5.933913e-02
2.089296e+05 +4.244621e-03 +6.140751e-02 +9.957554e-01 -6.140751e-02 +9.957554e-01 -6.140751e-02 +4.244621e-03 +6.140751e-02
2.162719e+05 +4.526496e-03 +6.354674e-02 +9.954735e-01 -6.354674e-02 +9.954735e-01 -6.354674e-02 +4.526496e-03 +6.354674e-02
2.238721e+05 +4.828346e-03 +6.575911e-02 +9.951717e-01 -6.575911e-02 +9.951717e-01 -6.575911e-02 +4.828346e-03 +6.575911e-02
2.317395e+05 +5.151574e-03 +6.804697e-02 +9.948484e-01 -6.804697e-02 +9.948484e-01 -6.804697e-02 +5.151574e-03 +6.804697e-02
2.398833e+05 +5.497675e-03 +7.041274e-02 +9.945023e-01 -7.041274e-02 +9.945023e-01 -7.041274e-02 +5.497675e-03 +7.041274e-02
2.483133e+05 +5.868252e-03 +7.285887e-02 +9.941317e-01 -7.285887e-02 +9.941317e-01 -7.285887e-02 +5.868252e-03 +7.285887e-02
2.570396e+05 +6.265014e-03 +7.538790e-02 +9.937350e-01 -7.538790e-02 +9.937350e-01 -7.538790e-02 +6.265014e-03 +7.538790e-02
2.660725e+05 +6.689786e-03 +7.800241e-02 +9.933102e-01 -7.800241e-02 +9.933102e-01 -7.800241e-02 +6.689786e-03 +7.800241e-02
2.754229e+05 +7.144519e-03 +8.070504e-02 +9.928555e-01 -8.070504e-02 +9.928555e-01 -8.070504e-02 +7.144519e-03 +8.070504e-02
2.851018e+05 +7.631294e-03 +8.349847e-02 +9.923687e-01 -8.349847e-02 +9.923687e-01 -8.349847e-02 +7.631294e-03 +8.349847e-02
2.951209e+05 +8.152331e-03 +8.638546e-02 +9.918477e-01 -8.638546e-02 +9.918477e-01 -8.638546e-02 +8.152331e-03 +8.638546e-02
3.054921e+05 +8.710002e-03 +8.936880e-02 +9.912900e-01 -8.936880e-02 +9.912900e-01 -8.936880e-02 +8.710002e-03 +8.936880e-02
3.162278e+05 +9.306833e-03 +9.245132e-02 +9.906932e-01 -9.245132e-02 +9.906932e-01 -9.245132e-02 +9.306833e-03 +9.245132e-02
3.273407e+05 +9.945519e-03 +9.563591e-02 +9.900545e-01 -9.563591e-02 +9.900545e-01 -9.563591e-02 +9.945519e-03 +9.563591e-02
3.388442e+05 +1.062893e-02 +9.892549e-02 +9.893711e-01 -9.892549e-02 +9.893711e-01 -9.892549e-02 +1.062893e-02 +9.892549e-02
3.507519e+05 +1.136014e-02 +1.023230e-01 +9.886399e-01 -1.023230e-01 +9.886399e-01 -1.023230e-01 +1.136014e-02 +1.023230e-01
3.630781e+05 +1.214239e-02 +1.058314e-01 +9.878576e-01 -1.058314e-01 +9.878576e-01 -1.058314e-01 +1.214239e-02 +1.058314e-01
3.758374e+05 +1.297916e-02 +1.094538e-01 +9.870208e-01 -1.094538e-01 +9.870208e-01 -1.094538e-01 +1.297916e-02 +1.094538e-01
3.890451e+05 +1.387414e-02 +1.131931e-01 +9.861259e-01 -1.131931e-01 +9.861259e-01 -1.131931e-01 +1.387414e-02 +1.131931e-01
4.027170e+05 +1.483126e-02 +1.170523e-01 +9.851687e-01 -1.170523e-01 +9.851687e-01 -1.170523e-01 +1.483126e-02 +1.170523e-01
4.168694e+05 +1.585468e-02 +1.210345e-01 +9.841453e-01 -1.210345e-01 +9.841453e-01 -1.210345e-01 +1.585468e-02 +1.210345e-01
4.315191e+05 +1.694885e-02 +1.251425e-01 +9.830512e-01 -1.251425e-01 +9.830512e-01 -1.251425e-01 +1.694885e-02 +1.251425e-01
4.466836e+05 +1.811846e-02 +1.293795e-01 +9.818815e-01 -1.293795e-01 +9.818815e-01 -1.293795e-01 +1.811846e-02 +1.293795e-01
4.623810e+05 +1.936852e-02 +1.337483e-01 +9.806315e-01 -1.337483e-01 +9.806315e-01 -1.337483e-01 +1.936852e-02 +1.337483e-01
4.786301e+05 +2.070430e-02 +1.382517e-01 +9.792957e-01 -1.382517e-01 +9.792957e-01 -1.382517e-01 +2.070430e-02 +1.382517e-01
4.954502e+05 +2.213142e-02 +1.428926e-01 +9.778686e-01 -1.428926e-01 +9.778686e-01 -1.428926e-01 +2.213142e-02 +1.428926e-01
5.128614e+05 +2.365582e-02 +1.476735e-01 +9.763442e-01 -1.476735e-01 +9.763442e-01 -1.476735e-01 +2.365582e-02 +1.476735e-01
5.308844e+05 +2.528375e-02 +1.525971e-01 +9.747162e-01 -1.525971e-01 +9.747162e-01 -1.525971e-01 +2.528375e-02 +1.525971e-01
5.495409e+05 +2.702186e-02 +1.576657e-01 +9.729781e-01 -1.576657e-01 +9.729781e-01 -1.576657e-01 +2.702186e-02 +1.576657e-01
5.688529e+05 +2.887712e-02 +1.628815e-01 +9.711229e-01 -1.628815e-01 +9.711229e-01 -1.628815e-01 +2.887712e-02 +1.628815e-01
5.888437e+05 +3.085692e-02 +1.682467e-01 +9.691431e-01 -1.682467e-01 +9.691431e-01 -1.682467e-01 +3.085692e-02 +1.682467e-01
6.095369e+05 +3.296900e-02 +1.737631e-01 +9.670310e-01 -1.737631e-01 +9.670310e-01 -1.737631e-01 +3.296900e-02 +1.737631e-01
6.309573e+05 +3.522152e-02 +1.794320e-01 +9.647785e-01 -1.794320e-01 +9.647785e-01 -1.794320e-01 +3.522152e-02 +1.794320e-01
6.531306e+05 +3.762304e-02 +1.852549e-01 +9.623770e-01 -1.852549e-01 +9.623770e-01 -1.852549e-01 +3.762304e-02 +1.852549e-01
6.760830e+05 +4.018254e-02 +1.912326e-01 +9.598175e-01 -1.912326e-01 +9.598175e-01 -1.912326e-01 +4.018254e-02 +1.912326e-01
6.998420e+05 +4.290940e-02 +1.973655e-01 +9.570906e-01 -1.973655e-01 +9.570906e-01 -1.973655e-01 +4.290940e-02 +1.973655e-01
7.244360e+05 +4.581343e-02 +2.036539e-01 +9.541866e-01 -2.036539e-01 +9.541866e-01 -2.036539e-01 +4.581343e-02 +2.036539e-01
7.498942e+05 +4.890484e-02 +2.100972e-01 +9.510952e-01 -2.100972e-01 +9.510952e-01 -2.100972e-01 +4.890484e-02 +2.100972e-01
7.762471e+05 +5.219427e-02 +2.166946e-01 +9.478057e-01 -2.166946e-01 +9.478057e-01 -2.166946e-01 +5.219427e-02 +2.166946e-01
8.035261e+05 +5.569274e-02 +2.234445e-01 +9.443073e-01 -2.234445e-01 +9.443073e-01 -2.234445e-01 +5.569274e-02 +2.234445e-01
8.317638e+05 +5.941167e-02 +2.303447e-01 +9.405883e-01 -2.303447e-01 +9.405883e-01 -2.303447e-01 +5.941167e-02 +2.303447e-01
8.609938e+05 +6.336284e-02 +2.373925e-01 +9.366372e-01 -2.373925e-01 +9.366372e-01 -2.373925e-01 +6.336284e-02 +2.373925e-01
8.912509e+05 +6.755835e-02 +2.445841e-01 +9.324416e-01 -2.445841e-01 +9.324416e-01 -2.445841e-01 +6.755835e-02 +2.445841e-01
9.225714e+05 +7.201065e-02 +2.519150e-01 +9.279894e-01 -2.519150e-01 +9.279894e-01 -2.519150e-01 +7.201065e-02 +2.519150e-01
9.549926e+05 +7.673241e-02 +2.593800e-01 +9.232676e-01 -2.593800e-01 +9.232676e-01 -2.593800e-01 +7.673241e-02 +2.593800e-01
9.885531e+05 +8.173656e-02 +2.669726e-01 +9.182634e-01 -2.669726e-01 +9.182634e-01 -2.669726e-01 +8.173656e-02 +2.669726e-01
1.023293e+06 +8.703616e-02 +2.746855e-01 +9.129638e-01 -2.746855e-01 +9.129638e-01 -2.746855e-01 +8.703616e-02 +2.746855e-01
1.059254e+06 +9.264438e-02 +2.825101e-01 +9.073556e-01 -2.825101e-01 +9.073556e-01 -2.825101e-01 +9.264438e-02 +2.825101e-01
1.096478e+06 +9.857441e-02 +2.904369e-01 +9.014256e-01 -2.904369e-01 +9.014256e-01 -2.904369e-01 +9.857441e-02 +2.904369e-01
1.135011e+06 +1.048394e-01 +2.984549e-01 +8.951606e-01 -2.984549e-01 +8.951606e-01 -2.984549e-01 +1.048394e-01 +2.984549e-01
1.174898e+06 +1.114522e-01 +3.065519e-01 +8.885478e-01 -3.065519e-01 +8.885478e-01 -3.065519e-01 +1.114522e-01 +3.065519e-01
1.216186e+06 +1.184257e-01 +3.147145e-01 +8.815743e-01 -3.147145e-01 +8.815743e-01 -3.147145e-01 +1.184257e-01 +3.147145e-01
1.258925e+06 +1.257720e-01 +3.229277e-01 +8.742280e-01 -3.229277e-01 +8.742280e-01 -3.229277e-01 +1.257720e-01 +3.229277e-01
1.303167e+06 +1.335030e-01 +3.311752e-01 +8.664970e-01 -3.311752e-01 +8.664970e-01 -3.311752e-01 +1.335030e-01 +3.311752e-01
1.348963e+06 +1.416296e-01 +3.394393e-01 +8.583704e-01 -3.394393e-01 +8.583704e-01 -3.394393e-01 +1.416296e-01 +3.394393e-01
1.396368e+06 +1.501624e-01 +3.477007e-01 +8.498376e-01 -3.477007e-01 +8.498376e-01 -3.477007e-01 +1.501624e-01 +3.477007e-01
1.445440e+06 +1.591104e-01 +3.559388e-01 +8.408896e-01 -3.559388e-01 +8.408896e-01 -3.559388e-01 +1.591104e-01 +3.559388e-01
1.496236e+06 +1.684820e-01 +3.641315e-01 +8.315180e-01 -3.641315e-01 +8.315180e-01 -3.641315e-01 +1.684820e-01 +3.641315e-01
1.548817e+06 +1.782838e-01 +3.722553e-01 +8.217162e-01 -3.722553e-01 +8.217162e-01 -3.722553e-01 +1.782838e-01 +3.722553e-01
1.603245e+06 +1.885213e-01 +3.802854e-01 +8.114787e-01 -3.802854e-01 +8.114787e-01 -3.802854e-01 +1.885213e-01 +3.802854e-01
1.659587e+06 +1.991981e-01 +3.881958e-01 +8.008019e-01 -3.881958e-01 +8.008019e-01 -3.881958e-01 +1.991981e-01 +3.881958e-01
1.717908e+06 +2.103159e-01 +3.959593e-01 +7.896841e-01 -3.959593e-01 +7.896841e-01 -3.959593e-01 +2.103159e-01 +3.959593e-01
1.778279e+06 +2.218746e-01 +4.035478e-01 +7.781254e-01 -4.035478e-01 +7.781254e-01 -4.035478e-01 +2.218746e-01 +4.035478e-01
1.840772e+06 +2.338715e-01 +4.109324e-01 +7.661285e-01 -4.109324e-01 +7.661285e-01 -4.109324e-01 +2.338715e-01 +4.109324e-01
1.905461e+06 +2.463020e-01 +4.180833e-01 +7.536980e-01 -4.180833e-01 +7.536980e-01 -4.180833e-01 +2.463020e-01 +4.180833e-01
1.972423e+06 +2.591586e-01 +4.249706e-01 +7.408414e-01 -4.249706e-01 +7.408414e-01 -4.249706e-01 +2.591586e-01 +4.249706e-01
2.041738e+06 +2.724315e-01 +4.315640e-01 +7.275685e-01 -4.315640e-01 +7.275685e-01 -4.315640e-01 +2.724315e-01 +4.315640e-01
2.113489e+06 +2.861080e-01 +4.378336e-01 +7.138920e-01 -4.378336e-01 +7.138920e-01 -4.378336e-01 +2.861080e-01 +4.378336e-01
2.187762e+06 +3.001727e-01 +4.437493e-01 +6.998273e-01 -4.437493e-01 +6.998273e-01 -4.437493e-01 +3.001727e-01 +4.437493e-01
2.264644e+06 +3.146074e-01 +4.492822e-01 +6.853926e-01 -4.492822e-01 +6.853926e-01 -4.492822e-01 +3.146074e-01 +4.492822e-01
2.344229e+06 +3.293912e-01 +4.544042e-01 +6.706088e-01 -4.544042e-01 +6.706088e-01 -4.544042e-01 +3.293912e-01 +4.544042e-01
2.426610e+06 +3.445004e-01 +4.590882e-01 +6.554996e-01 -4.590882e-01 +6.554996e-01 -4.590882e-01 +3.445004e-01 +4.590882e-01
2.511886e+06 +3.599087e-01 +4.633090e-01 +6.400913e-01 -4.633090e-01 +6.400913e-01 -4.633090e-01 +3.599087e-01 +4.633090e-01
2.600160e+06 +3.755871e-01 +4.670433e-01 +6.244129e-01 -4.670433e-01 +6.244129e-01 -4.670433e-01 +3.755871e-01 +4.670433e-01
2.691535e+06 +3.915047e-01 +4.702698e-01 +6.084953e-01 -4.702698e-01 +6.084953e-01 -4.702698e-01 +3.915047e-01 +4.702698e-01
2.786121e+06 +4.076280e-01 +4.729697e-01 +5.923720e-01 -4.729697e-01 +5.923720e-01 -4.729697e-01 +4.076280e-01 +4.729697e-01
2.884032e+06 +4.239221e-01 +4.751272e-01 +5.760779e-01 -4.751272e-01 +5.760779e-01 -4.751272e-01 +4.239221e-01 +4.751272e-01
2.985383e+06 +4.403501e-01 +4.767290e-01 +5.596499e-01 -4.767290e-01 +5.596499e-01 -4.767290e-01 +4.403501e-01 +4.767290e-01
3.090295e+06 +4.568741e-01 +4.777653e-01 +5.431259e-01 -4.777653e-01 +5.431259e-01 -4.777653e-01 +4.568741e-01 +4.777653e-01
3.198895e+06 +4.734554e-01 +4.782294e-01 +5.265446e-01 -4.782294e-01 +5.265446e-01 -4.782294e-01 +4.734554e-01 +4.782294e-01
3.311311e+06 +4.900544e-01 +4.781178e-01 +5.099456e-01 -4.781178e-01 +5.099456e-01 -4.781178e-01 +4.900544e-01 +4.781178e-01
3.427678e+06 +5.066317e-01 +4.774308e-01 +4.933683e-01 -4.774308e-01 +4.933683e-01 -4.774308e-01 +5.066317e-01 +4.774308e-01
3.548134e+06 +5.231478e-01 +4.761718e-01 +4.768522e-01 -4.761718e-01 +4.768522e-01 -4.761718e-01 +5.231478e-01 +4.761718e-01
3.672823e+06 +5.395640e-01 +4.743475e-01 +4.604360e-01 -4.743475e-01 +4.604360e-01 -4.743475e-01 +5.395640e-01 +4.743475e-01
3.801894e+06 +5.558425e-01 +4.719681e-01 +4.441575e-01 -4.719681e-01 +4.441575e-01 -4.719681e-01 +5.558425e-01 +4.719681e-01
3.935501e+06 +5.719467e-01 +4.690467e-01 +4.280533e-01 -4.690467e-01 +4.280533e-01 -4.690467e-01 +5.719467e-01 +4.690467e-01
4.073803e+06 +5.878417e-01 +4.655995e-01 +4.121583e-01 -4.655995e-01 +4.121583e-01 -4.655995e-01 +5.878417e-01 +4.655995e-01
4.216965e+06 +6.034943e-01 +4.616451e-01 +3.965057e-01 -4.616451e-01 +3.965057e-01 -4.616451e-01 +6.034943e-01 +4.616451e-01
4.365158e+06 +6.188736e-01 +4.572049e-01 +3.811264e-01 -4.572049e-01 +3.811264e-01 -4.572049e-01 +6.188736e-01 +4.572049e-01
4.518559e+06 +6.339511e-01 +4.523022e-01 +3.660489e-01 -4.523022e-01 +3.660489e-01 -4.523022e-01 +6.339511e-01 +4.523022e-01
4.677351e+06 +6.487007e-01 +4.469623e-01 +3.512993e-01 -4.469623e-01 +3.512993e-01 -4.469623e-01 +6.487007e-01 +4.469623e-01
4.841724e+06 +6.630990e-01 +4.412120e-01 +3.369010e-01 -4.412120e-01 +3.369010e-01 -4.412120e-01 +6.630990e-01 +4.412120e-01
5.011872e+06 +6.771252e-01 +4.350794e-01 +3.228748e-01 -4.350794e-01 +3.228748e-01 -4.350794e-01 +6.771252e-01 +4.350794e-01
5.188000e+06 +6.907614e-01 +4.285933e-01 +3.092386e-01 -4.285933e-01 +3.092386e-01 -4.285933e-01 +6.907614e-01 +4.285933e-01
5.370318e+06 +7.039926e-01 +4.217835e-01 +2.960074e-01 -4.217835e-01 +2.960074e-01 -4.217835e-01 +7.039926e-01 +4.217835e-01
5.559043e+06 +7.168064e-01 +4.146799e-01 +2.831936e-01 -4.146799e-01 +2.831936e-01 -4.146799e-01 +7.168064e-01 +4.146799e-01
5.754399e+06 +7.291930e-01 +4.073124e-01 +2.708070e-01 -4.073124e-01 +2.708070e-01 -4.073124e-01 +7.291930e-01 +4.073124e-01
5.956621e+06 +7.411455e-01 +3.997109e-01 +2.588545e-01 -3.997109e-01 +2.588545e-01 -3.997109e-01 +7.411455e-01 +3.997109e-01
6.165950e+06 +7.526591e-01 +3.919045e-01 +2.473409e-01 -3.919045e-01 +2.473409e-01 -3.919045e-01 +7.526591e-01 +3.919045e-01
6.382635e+06 +7.637318e-01 +3.839221e-01 +2.362682e-01 -3.839221e-01 +2.362682e-01 -3.839221e-01 +7.637318e-01 +3.839221e-01
6.500000e+06 +7.693955e-01 +3.796494e-01 +2.306045e-01 -3.796494e-01 +2.306045e-01 -3.796494e-01 +7.693955e-01 +3.796494e-01
6.606934e+06 +7.743634e-01 +3.757913e-01 +2.256366e-01 -3.757913e-01 +2.256366e-01 -3.757913e-01 +7.743634e-01 +3.757913e-01
6.756474e+06 +7.810180e-01 +3.704560e-01 +2.189820e-01 -3.704560e-01 +2.189820e-01 -3.704560e-01 +7.810180e-01 +3.704560e-01
6.839116e+06 +7.845558e-01 +3.675390e-01 +2.154442e-01 -3.675390e-01 +2.154442e-01 -3.675390e-01 +7.845558e-01 +3.675390e-01
7.023067e+06 +7.920922e-01 +3.611311e-01 +2.079078e-01 -3.611311e-01 +2.079078e-01 -3.611311e-01 +7.920922e-01 +3.611311e-01
7.079458e+06 +7.943129e-01 +3.591909e-01 +2.056871e-01 -3.591909e-01 +2.056871e-01 -3.591909e-01 +7.943129e-01 +3.591909e-01
7.300179e+06 +8.026250e-01 +3.517096e-01 +1.973750e-01 -3.517096e-01 +1.973750e-01 -3.517096e-01 +8.026250e-01 +3.517096e-01
7.328245e+06 +8.036402e-01 +3.507714e-01 +1.963598e-01 -3.507714e-01 +1.963598e-01 -3.507714e-01 +8.036402e-01 +3.507714e-01
7.585776e+06 +8.125446e-01 +3.423035e-01 +1.874554e-01 -3.423035e-01 +1.874554e-01 -3.423035e-01 +8.125446e-01 +3.423035e-01
7.588226e+06 +8.126259e-01 +3.422242e-01 +1.873741e-01 -3.422242e-01 +1.873741e-01 -3.422242e-01 +8.126259e-01 +3.422242e-01
7.852356e+06 +8.210344e-01 +3.338089e-01 +1.789656e-01 -3.338089e-01 +1.789656e-01 -3.338089e-01 +8.210344e-01 +3.338089e-01
7.887638e+06 +8.221064e-01 +3.327055e-01 +1.778936e-01 -3.327055e-01 +1.778936e-01 -3.327055e-01 +8.221064e-01 +3.327055e-01
8.128305e+06 +8.291189e-01 +3.253079e-01 +1.708811e-01 -3.253079e-01 +1.708811e-01 -3.253079e-01 +8.291189e-01 +3.253079e-01
8.198864e+06 +8.310798e-01 +3.231818e-01 +1.689202e-01 -3.231818e-01 +1.689202e-01 -3.231818e-01 +8.310798e-01 +3.231818e-01
8.413951e+06 +8.368086e-01 +3.168193e-01 +1.631914e-01 -3.168193e-01 +1.631914e-01 -3.168193e-01 +8.368086e-01 +3.168193e-01
8.522371e+06 +8.395610e-01 +3.136793e-01 +1.604390e-01 -3.136793e-01 +1.604390e-01 -3.136793e-01 +8.395610e-01 +3.136793e-01
8.709636e+06 +8.441146e-01 +3.083604e-01 +1.558854e-01 -3.083604e-01 +1.558854e-01 -3.083604e-01 +8.441146e-01 +3.083604e-01
8.858642e+06 +8.475659e-01 +3.042216e-01 +1.524341e-01 -3.042216e-01 +1.524341e-01 -3.042216e-01 +8.475659e-01 +3.042216e-01
9.015711e+06 +8.510487e-01 +2.999470e-01 +1.489513e-01 -2.999470e-01 +1.489513e-01 -2.999470e-01 +8.510487e-01 +2.999470e-01
9.208181e+06 +8.551115e-01 +2.948302e-01 +1.448885e-01 -2.948302e-01 +1.448885e-01 -2.948302e-01 +8.551115e-01 +2.948302e-01
9.332543e+06 +8.576232e-01 +2.915936e-01 +1.423768e-01 -2.915936e-01 +1.423768e-01 -2.915936e-01 +8.576232e-01 +2.915936e-01
9.571513e+06 +8.622154e-01 +2.855243e-01 +1.377846e-01 -2.855243e-01 +1.377846e-01 -2.855243e-01 +8.622154e-01 +2.855243e-01
9.660509e+06 +8.638509e-01 +2.833134e-01 +1.361491e-01 -2.833134e-01 +1.361491e-01 -2.833134e-01 +8.638509e-01 +2.833134e-01
9.949180e+06 +8.688958e-01 +2.763211e-01 +1.311042e-01 -2.763211e-01 +1.311042e-01 -2.763211e-01 +8.688958e-01 +2.763211e-01
1.000000e+07 +8.697447e-01 +2.751179e-01 +1.302553e-01 -2.751179e-01 +1.302553e-01 -2.751179e-01 +8.697447e-01 +2.751179e-01
1.034175e+07 +8.751710e-01 +2.672356e-01 +1.248290e-01 -2.672356e-01 +1.248290e-01 -2.672356e-01 +8.751710e-01 +2.672356e-01
1.035142e+07 +8.753177e-01 +2.670177e-01 +1.246823e-01 -2.670177e-01 +1.246823e-01 -2.670177e-01 +8.753177e-01 +2.670177e-01
1.071519e+07 +8.805831e-01 +2.590220e-01 +1.194169e-01 -2.590220e-01 +1.194169e-01 -2.590220e-01 +8.805831e-01 +2.590220e-01
1.074981e+07 +8.810596e-01 +2.582809e-01 +1.189404e-01 -2.582809e-01 +1.189404e-01 -2.582809e-01 +8.810596e-01 +2.582809e-01
1.109175e+07 +8.855541e-01 +2.511387e-01 +1.144459e-01 -2.511387e-01 +1.144459e-01 -2.511387e-01 +8.855541e-01 +2.511387e-01
1.117397e+07 +8.865801e-01 +2.494683e-01 +1.134199e-01 -2.494683e-01 +1.134199e-01 -2.494683e-01 +8.865801e-01 +2.494683e-01
1.148154e+07 +8.902436e-01 +2.433748e-01 +1.097564e-01 -2.433748e-01 +1.097564e-01 -2.433748e-01 +8.902436e-01 +2.433748e-01
1.161487e+07 +8.917507e-01 +2.408071e-01 +1.082493e-01 -2.408071e-01 +1.082493e-01 -2.408071e-01 +8.917507e-01 +2.408071e-01
1.188502e+07 +8.946645e-01 +2.357361e-01 +1.053355e-01 -2.357361e-01 +1.053355e-01 -2.357361e-01 +8.946645e-01 +2.357361e-01
1.207316e+07 +8.965895e-01 +2.323054e-01 +1.034105e-01 -2.323054e-01 +1.034105e-01 -2.323054e-01 +8.965895e-01 +2.323054e-01
1.230269e+07 +8.988296e-01 +2.282276e-01 +1.011704e-01 -2.282276e-01 +1.011704e-01 -2.282276e-01 +8.988296e-01 +2.282276e-01
1.254954e+07 +9.011141e-01 +2.239695e-01 +9.888592e-02 -2.239695e-01 +9.888592e-02 -2.239695e-01 +9.011141e-01 +2.239695e-01
1.273503e+07 +9.027510e-01 +2.208533e-01 +9.724895e-02 -2.208533e-01 +9.724895e-02 -2.208533e-01 +9.027510e-01 +2.208533e-01
1.304471e+07 +9.053417e-01 +2.158043e-01 +9.465831e-02 -2.158043e-01 +9.465831e-02 -2.158043e-01 +9.053417e-01 +2.158043e-01
1.318257e+07 +9.064410e-01 +2.136163e-01 +9.355897e-02 -2.136163e-01 +9.355897e-02 -2.136163e-01 +9.064410e-01 +2.136163e-01
1.355942e+07 +9.092889e-01 +2.078138e-01 +9.071106e-02 -2.078138e-01 +9.071106e-02 -2.078138e-01 +9.092889e-01 +2.078138e-01
1.364583e+07 +9.099112e-01 +2.065190e-01 +9.008876e-02 -2.065190e-01 +9.008876e-02 -2.065190e-01 +9.099112e-01 +2.065190e-01
1.409444e+07 +9.129719e-01 +2.000003e-01 +8.702807e-02 -2.000003e-01 +8.702807e-02 -2.000003e-01 +9.129719e-01 +2.000003e-01
1.412538e+07 +9.131730e-01 +1.995630e-01 +8.682700e-02 -1.995630e-01 +8.682700e-02 -1.995630e-01 +9.131730e-01 +1.995630e-01
1.462177e+07 +9.162373e-01 +1.927494e-01 +8.376272e-02 -1.927494e-01 +8.376272e-02 -1.927494e-01 +9.162373e-01 +1.927494e-01
1.465057e+07 +9.164061e-01 +1.923656e-01 +8.359387e-02 -1.923656e-01 +8.359387e-02 -1.923656e-01 +9.164061e-01 +1.923656e-01
1.513561e+07 +9.191146e-01 +1.860787e-01 +8.088537e-02 -1.860787e-01 +8.088537e-02 -1.860787e-01 +9.191146e-01 +1.860787e-01
1.522864e+07 +9.196064e-01 +1.849101e-01 +8.039363e-02 -1.849101e-01 +8.039363e-02 -1.849101e-01 +9.196064e-01 +1.849101e-01
1.566751e+07 +9.218152e-01 +1.795506e-01 +7.818483e-02 -1.795506e-01 +7.818483e-02 -1.795506e-01 +9.218152e-01 +1.795506e-01
1.582953e+07 +9.225868e-01 +1.776336e-01 +7.741315e-02 -1.776336e-01 +7.741315e-02 -1.776336e-01 +9.225868e-01 +1.776336e-01
1.621810e+07 +9.243486e-01 +1.731645e-01 +7.565136e-02 -1.731645e-01 +7.565136e-02 -1.731645e-01 +9.243486e-01 +1.731645e-01
1.645412e+07 +9.253611e-01 +1.705351e-01 +7.463890e-02 -1.705351e-01 +7.463890e-02 -1.705351e-01 +9.253611e-01 +1.705351e-01
1.678804e+07 +9.267243e-01 +1.669195e-01 +7.327567e-02 -1.669195e-01 +7.327567e-02 -1.669195e-01 +9.267243e-01 +1.669195e-01
1.710336e+07 +9.279420e-01 +1.636129e-01 +7.205801e-02 -1.636129e-01 +7.205801e-02 -1.636129e-01 +9.279420e-01 +1.636129e-01
1.737801e+07 +9.289511e-01 +1.608140e-01 +7.104889e-02 -1.608140e-01 +7.104889e-02 -1.608140e-01 +9.289511e-01 +1.608140e-01
1.777821e+07 +9.303417e-01 +1.568647e-01 +6.965828e-02 -1.568647e-01 +6.965828e-02 -1.568647e-01 +9.303417e-01 +1.568647e-01
1.798871e+07 +9.310375e-01 +1.548463e-01 +6.896254e-02 -1.548463e-01 +6.896254e-02 -1.548463e-01 +9.310375e-01 +1.548463e-01
1.847970e+07 +9.325719e-01 +1.502878e-01 +6.742813e-02 -1.502878e-01 +6.742813e-02 -1.502878e-01 +9.325719e-01 +1.502878e-01
1.862087e+07 +9.329914e-01 +1.490142e-01 +6.700856e-02 -1.490142e-01 +6.700856e-02 -1.490142e-01 +9.329914e-01 +1.490142e-01
1.920886e+07 +9.346434e-01 +1.438788e-01 +6.535665e-02 -1.438788e-01 +6.535665e-02 -1.438788e-01 +9.346434e-01 +1.438788e-01
1.927525e+07 +9.348207e-01 +1.433154e-01 +6.517931e-02 -1.433154e-01 +6.517931e-02 -1.433154e-01 +9.348207e-01 +1.433154e-01
1.995262e+07 +9.365325e-01 +1.377471e-01 +6.346752e-02 -1.377471e-01 +6.346752e-02 -1.377471e-01 +9.365325e-01 +1.377471e-01
1.996679e+07 +9.365665e-01 +1.376340e-01 +6.343352e-02 -1.376340e-01 +6.343352e-02 -1.376340e-01 +9.365665e-01 +1.376340e-01
2.065380e+07 +9.381337e-01 +1.323066e-01 +6.186630e-02 -1.323066e-01 +6.186630e-02 -1.323066e-01 +9.381337e-01 +1.323066e-01
2.075463e+07 +9.383510e-01 +1.315495e-01 +6.164904e-02 -1.315495e-01 +6.164904e-02 -1.315495e-01 +9.383510e-01 +1.315495e-01
2.137962e+07 +9.396309e-01 +1.269907e-01 +6.036915e-02 -1.269907e-01 +6.036915e-02 -1.269907e-01 +9.396309e-01 +1.269907e-01
2.157356e+07 +9.400059e-01 +1.256210e-01 +5.999410e-02 -1.256210e-01 +5.999410e-02 -1.256210e-01 +9.400059e-01 +1.256210e-01
2.213095e+07 +9.410301e-01 +1.217962e-01 +5.896990e-02 -1.217962e-01 +5.896990e-02 -1.217962e-01 +9.410301e-01 +1.217962e-01
2.242480e+07 +9.415399e-01 +1.198438e-01 +5.846013e-02 -1.198438e-01 +5.846013e-02 -1.198438e-01 +9.415399e-01 +1.198438e-01
2.290868e+07 +9.423373e-01 +1.167199e-01 +5.766275e-02 -1.167199e-01 +5.766275e-02 -1.167199e-01 +9.423373e-01 +1.167199e-01
2.330962e+07 +9.429609e-01 +1.142133e-01 +5.703912e-02 -1.142133e-01 +5.703912e-02 -1.142133e-01 +9.429609e-01 +1.142133e-01
2.371374e+07 +9.435578e-01 +1.117582e-01 +5.644221e-02 -1.117582e-01 +5.644221e-02 -1.117582e-01 +9.435578e-01 +1.117582e-01
2.422936e+07 +9.442765e-01 +1.087244e-01 +5.572354e-02 -1.087244e-01 +5.572354e-02 -1.087244e-01 +9.442765e-01 +1.087244e-01
2.454709e+07 +9.446969e-01 +1.069075e-01 +5.530312e-02 -1.069075e-01 +5.530312e-02 -1.069075e-01 +9.446969e-01 +1.069075e-01
2.518539e+07 +9.454936e-01 +1.033721e-01 +5.450639e-02 -1.033721e-01 +5.450639e-02 -1.033721e-01 +9.454936e-01 +1.033721e-01
2.540973e+07 +9.457594e-01 +1.021643e-01 +5.424064e-02 -1.021643e-01 +5.424064e-02 -1.021643e-01 +9.457594e-01 +1.021643e-01
2.617914e+07 +9.466189e-01 +9.815111e-02 +5.338113e-02 -9.815111e-02 +5.338113e-02 -9.815111e-02 +9.466189e-01 +9.815111e-02
2.630268e+07 +9.467498e-01 +9.752466e-02 +5.325020e-02 -9.752466e-02 +5.325020e-02 -9.752466e-02 +9.467498e-01 +9.752466e-02
2.721210e+07 +9.476584e-01 +9.305620e-02 +5.234165e-02 -9.305620e-02 +5.234165e-02 -9.305620e-02 +9.476584e-01 +9.305620e-02
2.722701e+07 +9.476725e-01 +9.298496e-02 +5.232752e-02 -9.298496e-02 +5.232752e-02 -9.298496e-02 +9.476725e-01 +9.298496e-02
2.818383e+07 +9.485314e-01 +8.854132e-02 +5.146858e-02 -8.854132e-02 +5.146858e-02 -8.854132e-02 +9.485314e-01 +8.854132e-02
2.828582e+07 +9.486177e-01 +8.808196e-02 +5.138227e-02 -8.808196e-02 +5.138227e-02 -8.808196e-02 +9.486177e-01 +8.808196e-02
2.917427e+07 +9.493304e-01 +8.418988e-02 +5.066963e-02 -8.418988e-02 +5.066963e-02 -8.418988e-02 +9.493304e-01 +8.418988e-02
2.940191e+07 +9.495023e-01 +8.322296e-02 +5.049774e-02 -8.322296e-02 +5.049774e-02 -8.322296e-02 +9.495023e-01 +8.322296e-02
3.019952e+07 +9.500729e-01 +7.992676e-02 +4.992714e-02 -7.992676e-02 +4.992714e-02 -7.992676e-02 +9.500729e-01 +7.992676e-02
3.056203e+07 +9.503169e-01 +7.847374e-02 +4.968314e-02 -7.847374e-02 +4.968314e-02 -7.847374e-02 +9.503169e-01 +7.847374e-02
3.126079e+07 +9.507622e-01 +7.574807e-02 +4.923784e-02 -7.574807e-02 +4.923784e-02 -7.574807e-02 +9.507622e-01 +7.574807e-02
3.176794e+07 +9.510660e-01 +7.382882e-02 +4.893397e-02 -7.382882e-02 +4.893397e-02 -7.382882e-02 +9.510660e-01 +7.382882e-02
3.235937e+07 +9.514013e-01 +7.164990e-02 +4.859866e-02 -7.164990e-02 +4.859866e-02 -7.164990e-02 +9.514013e-01 +7.164990e-02
3.302142e+07 +9.517540e-01 +6.928269e-02 +4.824602e-02 -6.928269e-02 +4.824602e-02 -6.928269e-02 +9.517540e-01 +6.928269e-02
3.349654e+07 +9.519932e-01 +6.762833e-02 +4.800675e-02 -6.762833e-02 +4.800675e-02 -6.762833e-02 +9.519932e-01 +6.762833e-02
3.432436e+07 +9.523846e-01 +6.482984e-02 +4.761544e-02 -6.482984e-02 +4.761544e-02 -6.482984e-02 +9.523846e-01 +6.482984e-02
3.467369e+07 +9.525405e-01 +6.367945e-02 +4.745946e-02 -6.367945e-02 +4.745946e-02 -6.367945e-02 +9.525405e-01 +6.367945e-02
3.567871e+07 +9.529613e-01 +6.046479e-02 +4.703866e-02 -6.046479e-02 +4.703866e-02 -6.046479e-02 +9.529613e-01 +6.046479e-02
3.589219e+07 +9.530457e-01 +5.979935e-02 +4.695432e-02 -5.979935e-02 +4.695432e-02 -5.979935e-02 +9.530457e-01 +5.979935e-02
3.708650e+07 +9.534876e-01 +5.618205e-02 +4.651243e-02 -5.618205e-02 +4.651243e-02 -5.618205e-02 +9.534876e-01 +5.618205e-02
3.715352e+07 +9.535109e-01 +5.598415e-02 +4.648906e-02 -5.598415e-02 +4.648906e-02 -5.598415e-02 +9.535109e-01 +5.598415e-02
3.845918e+07 +9.539384e-01 +5.222995e-02 +4.606157e-02 -5.222995e-02 +4.606157e-02 -5.222995e-02 +9.539384e-01 +5.222995e-02
3.854984e+07 +9.539662e-01 +5.197614e-02 +4.603375e-02 -5.197614e-02 +4.603375e-02 -5.197614e-02 +9.539662e-01 +5.197614e-02
3.981072e+07 +9.543301e-01 +4.853288e-02 +4.566991e-02 -4.853288e-02 +4.566991e-02 -4.853288e-02 +9.543301e-01 +4.853288e-02
4.007092e+07 +9.544001e-01 +4.784162e-02 +4.559990e-02 -4.784162e-02 +4.559990e-02 -4.784162e-02 +9.544001e-01 +4.784162e-02
4.120975e+07 +9.546877e-01 +4.488908e-02 +4.531229e-02 -4.488908e-02 +4.531229e-02 -4.488908e-02 +9.546877e-01 +4.488908e-02
4.165202e+07 +9.547916e-01 +4.377307e-02 +4.520839e-02 -4.377307e-02 +4.520839e-02 -4.377307e-02 +9.547916e-01 +4.377307e-02
4.265795e+07 +9.550129e-01 +4.129471e-02 +4.498708e-02 -4.129471e-02 +4.498708e-02 -4.129471e-02 +9.550129e-01 +4.129471e-02
4.329550e+07 +9.551430e-01 +3.976508e-02 +4.485698e-02 -3.976508e-02 +4.485698e-02 -3.976508e-02 +9.551430e-01 +3.976508e-02
4.415704e+07 +9.553072e-01 +3.774594e-02 +4.469280e-02 -3.774594e-02 +4.469280e-02 -3.774594e-02 +9.553072e-01 +3.774594e-02
4.500383e+07 +9.554564e-01 +3.581229e-02 +4.454364e-02 -3.581229e-02 +4.454364e-02 -3.581229e-02 +9.554564e-01 +3.581229e-02
4.570882e+07 +9.555719e-01 +3.423896e-02 +4.442810e-02 -3.423896e-02 +4.442810e-02 -3.423896e-02 +9.555719e-01 +3.423896e-02
4.677957e+07 +9.557334e-01 +3.190934e-02 +4.426659e-02 -3.190934e-02 +4.426659e-02 -3.190934e-02 +9.557334e-01 +3.190934e-02
4.731513e+07 +9.558082e-01 +3.076998e-02 +4.419176e-02 -3.076998e-02 +4.419176e-02 -3.076998e-02 +9.558082e-01 +3.076998e-02
4.862537e+07 +9.559758e-01 +2.805091e-02 +4.402421e-02 -2.805091e-02 +4.402421e-02 -2.805091e-02 +9.559758e-01 +2.805091e-02
4.897788e+07 +9.560173e-01 +2.733521e-02 +4.398269e-02 -2.733521e-02 +4.398269e-02 -2.733521e-02 +9.560173e-01 +2.733521e-02
5.054401e+07 +9.561849e-01 +2.423170e-02 +4.381511e-02 -2.423170e-02 +4.381511e-02 -2.423170e-02 +9.561849e-01 +2.423170e-02
5.069907e+07 +9.562001e-01 +2.393091e-02 +4.379994e-02 -2.393091e-02 +4.379994e-02 -2.393091e-02 +9.562001e-01 +2.393091e-02
5.248075e+07 +9.563573e-01 +2.055330e-02 +4.364266e-02 -2.055330e-02 +4.364266e-02 -2.055330e-02 +9.563573e-01 +2.055330e-02
5.253834e+07 +9.563619e-01 +2.044643e-02 +4.363807e-02 -2.044643e-02 +4.363807e-02 -2.044643e-02 +9.563619e-01 +2.044643e-02
5.432503e+07 +9.564899e-01 +1.719867e-02 +4.351012e-02 -1.719867e-02 +4.351012e-02 -1.719867e-02 +9.564899e-01 +1.719867e-02
5.461137e+07 +9.565079e-01 +1.668985e-02 +4.349207e-02 -1.668985e-02 +4.349207e-02 -1.668985e-02 +9.565079e-01 +1.668985e-02
5.623413e+07 +9.565983e-01 +1.386327e-02 +4.340171e-02 -1.386327e-02 +4.340171e-02 -1.386327e-02 +9.565983e-01 +1.386327e-02
5.676620e+07 +9.566237e-01 +1.295671e-02 +4.337627e-02 -1.295671e-02 +4.337627e-02 -1.295671e-02 +9.566237e-01 +1.295671e-02
5.821032e+07 +9.566831e-01 +1.054340e-02 +4.331693e-02 -1.054340e-02 +4.331693e-02 -1.054340e-02 +9.566831e-01 +1.054340e-02
5.900605e+07 +9.567100e-01 +9.241790e-03 +4.328999e-02 -9.241790e-03 +4.328999e-02 -9.241790e-03 +9.567100e-01 +9.241790e-03
6.025596e+07 +9.567446e-01 +7.235346e-03 +4.325539e-02 -7.235346e-03 +4.325539e-02 -7.235346e-03 +9.567446e-01 +7.235346e-03
6.133428e+07 +9.567673e-01 +5.539875e-03 +4.323273e-02 -5.539875e-03 +4.323273e-02 -5.539875e-03 +9.567673e-01 +5.539875e-03
6.237348e+07 +9.567832e-01 +3.935402e-03 +4.321681e-02 -3.935402e-03 +4.321681e-02 -3.935402e-03 +9.567832e-01 +3.935402e-03
6.375438e+07 +9.567959e-01 +1.845759e-03 +4.320415e-02 -1.845759e-03 +4.320415e-02 -1.845759e-03 +9.567959e-01 +1.845759e-03
6.456542e+07 +9.567990e-01 +6.398720e-04 +4.320100e-02 -6.398720e-04 +4.320100e-02 -6.398720e-04 +9.567990e-01 +6.398720e-04
6.626996e+07 +9.567959e-01 -1.845759e-03 +4.320409e-02 +1.845759e-03 +4.320409e-02 +1.845759e-03 +9.567959e-01 -1.845759e-03
6.683439e+07 +9.567921e-01 -2.654941e-03 +4.320789e-02 +2.654941e-03 +4.320789e-02 +2.654941e-03 +9.567921e-01 -2.654941e-03
6.888481e+07 +9.567674e-01 -5.539877e-03 +4.323256e-02 +5.539877e-03 +4.323256e-02 +5.539877e-03 +9.567674e-01 -5.539877e-03
6.918310e+07 +9.567625e-01 -5.952733e-03 +4.323751e-02 +5.952733e-03 +4.323751e-02 +5.952733e-03 +9.567625e-01 -5.952733e-03
7.160283e+07 +9.567103e-01 -9.241795e-03 +4.328971e-02 +9.241795e-03 +4.328971e-02 +9.241795e-03 +9.567103e-01 -9.241795e-03
7.161434e+07 +9.567100e-01 -9.257201e-03 +4.329001e-02 +9.257201e-03 +4.329001e-02 +9.257201e-03 +9.567100e-01 -9.257201e-03
7.413102e+07 +9.566344e-01 -1.257205e-02 +4.336562e-02 +1.257205e-02 +4.336562e-02 +1.257205e-02 +9.566344e-01 -1.257205e-02
7.442809e+07 +9.566241e-01 -1.295672e-02 +4.337588e-02 +1.295672e-02 +4.337588e-02 +1.295672e-02 +9.566241e-01 -1.295672e-02
7.673615e+07 +9.565353e-01 -1.590098e-02 +4.346469e-02 +1.590098e-02 +4.346469e-02 +1.590098e-02 +9.565353e-01 -1.590098e-02
7.736484e+07 +9.565084e-01 -1.668987e-02 +4.349157e-02 +1.668987e-02 +4.349157e-02 +1.668987e-02 +9.565084e-01 -1.668987e-02
7.943282e+07 +9.564123e-01 -1.924770e-02 +4.358768e-02 +1.924770e-02 +4.358768e-02 +1.924770e-02 +9.564123e-01 -1.924770e-02
8.041746e+07 +9.563626e-01 -2.044646e-02 +4.363745e-02 +2.044646e-02 +4.363745e-02 +2.044646e-02 +9.563626e-01 -2.044646e-02
8.222426e+07 +9.562648e-01 -2.261595e-02 +4.373517e-02 +2.261595e-02 +4.373517e-02 +2.261595e-02 +9.562648e-01 -2.261595e-02
8.359053e+07 +9.561856e-01 -2.423174e-02 +4.381436e-02 +2.423174e-02 +4.381436e-02 +2.423174e-02 +9.561856e-01 -2.423174e-02
8.511380e+07 +9.560922e-01 -2.600945e-02 +4.390782e-02 +2.600945e-02 +4.390782e-02 +2.600945e-02 +9.560922e-01 -2.600945e-02
8.688880e+07 +9.559767e-01 -2.805096e-02 +4.402334e-02 +2.805096e-02 +4.402334e-02 +2.805096e-02 +9.559767e-01 -2.805096e-02
8.810489e+07 +9.558936e-01 -2.943195e-02 +4.410645e-02 +2.943195e-02 +4.410645e-02 +2.943195e-02 +9.558936e-01 -2.943195e-02
9.031721e+07 +9.557344e-01 -3.190941e-02 +4.426559e-02 +3.190941e-02 +4.426559e-02 +3.190941e-02 +9.557344e-01 -3.190941e-02
9.120108e+07 +9.556680e-01 -3.288721e-02 +4.433195e-02 +3.288721e-02 +4.433195e-02 +3.288721e-02 +9.556680e-01 -3.288721e-02
9.388090e+07 +9.554575e-01 -3.581237e-02 +4.454251e-02 +3.581237e-02 +4.454251e-02 +3.581237e-02 +9.554575e-01 -3.581237e-02
9.440609e+07 +9.554146e-01 -3.637899e-02 +4.458538e-02 +3.637899e-02 +4.458538e-02 +3.637899e-02 +9.554146e-01 -3.637899e-02
9.758520e+07 +9.551443e-01 -3.976519e-02 +4.485570e-02 +3.976519e-02 +4.485570e-02 +3.976519e-02 +9.551443e-01 -3.976519e-02
9.772372e+07 +9.551321e-01 -3.991110e-02 +4.486789e-02 +3.991110e-02 +4.486789e-02 +3.991110e-02 +9.551321e-01 -3.991110e-02
1.011579e+08 +9.548192e-01 -4.348732e-02 +4.518078e-02 +4.348732e-02 +4.518078e-02 +4.348732e-02 +9.548192e-01 -4.348732e-02
1.014357e+08 +9.547930e-01 -4.377320e-02 +4.520696e-02 +4.377320e-02 +4.520696e-02 +4.377320e-02 +9.547930e-01 -4.377320e-02
1.047129e+08 +9.544745e-01 -4.711149e-02 +4.552548e-02 +4.711149e-02 +4.552548e-02 +4.711149e-02 +9.544745e-01 -4.711149e-02
1.054381e+08 +9.544017e-01 -4.784178e-02 +4.559831e-02 +4.784178e-02 +4.559831e-02 +4.784178e-02 +9.544017e-01 -4.784178e-02
1.083927e+08 +9.540964e-01 -5.078744e-02 +4.590357e-02 +5.078744e-02 +4.590357e-02 +5.078744e-02 +9.540964e-01 -5.078744e-02
1.095984e+08 +9.539680e-01 -5.197633e-02 +4.603200e-02 +5.197633e-02 +4.603200e-02 +5.197633e-02 +9.539680e-01 -5.197633e-02
1.122018e+08 +9.536832e-01 -5.451902e-02 +4.631677e-02 +5.451902e-02 +4.631677e-02 +5.451902e-02 +9.536832e-01 -5.451902e-02
1.139228e+08 +9.534895e-01 -5.618227e-02 +4.651050e-02 +5.618227e-02 +4.651050e-02 +5.618227e-02 +9.534895e-01 -5.618227e-02
1.161449e+08 +9.532330e-01 -5.831010e-02 +4.676695e-02 +5.831010e-02 +4.676695e-02 +5.831010e-02 +9.532330e-01 -5.831010e-02
1.184180e+08 +9.529635e-01 -6.046506e-02 +4.703654e-02 +6.046506e-02 +4.703654e-02 +6.046506e-02 +9.529635e-01 -6.046506e-02
1.202264e+08 +9.527438e-01 -6.216457e-02 +4.725617e-02 +6.216457e-02 +4.725617e-02 +6.216457e-02 +9.527438e-01 -6.216457e-02
1.230904e+08 +9.523869e-01 -6.483016e-02 +4.761312e-02 +6.483016e-02 +4.761312e-02 +6.483016e-02 +9.523869e-01 -6.483016e-02
1.244515e+08 +9.522134e-01 -6.608631e-02 +4.778662e-02 +6.608631e-02 +4.778662e-02 +6.608631e-02 +9.522134e-01 -6.608631e-02
1.279473e+08 +9.517565e-01 -6.928306e-02 +4.824349e-02 +6.928306e-02 +4.824349e-02 +6.928306e-02 +9.517565e-01 -6.928306e-02
1.288250e+08 +9.516393e-01 -7.007923e-02 +4.836070e-02 +7.007923e-02 +4.836070e-02 +7.007923e-02 +9.516393e-01 -7.007923e-02
1.329957e+08 +9.510688e-01 -7.382925e-02 +4.893121e-02 +7.382925e-02 +4.893121e-02 +7.382925e-02 +9.510688e-01 -7.382925e-02
1.333521e+08 +9.510190e-01 -7.414723e-02 +4.898099e-02 +7.414723e-02 +4.898099e-02 +7.414723e-02 +9.510190e-01 -7.414723e-02
1.380384e+08 +9.503497e-01 -7.829424e-02 +4.965025e-02 +7.829424e-02 +4.965025e-02 +7.829424e-02 +9.503497e-01 -7.829424e-02
1.382434e+08 +9.503199e-01 -7.847424e-02 +4.968015e-02 +7.847424e-02 +4.968015e-02 +7.847424e-02 +9.503199e-01 -7.847424e-02
1.428894e+08 +9.496285e-01 -8.252417e-02 +5.037147e-02 +8.252417e-02 +5.037147e-02 +8.252417e-02 +9.496285e-01 -8.252417e-02
1.436981e+08 +9.495055e-01 -8.322353e-02 +5.049448e-02 +8.322353e-02 +5.049448e-02 +8.322353e-02 +9.495055e-01 -8.322353e-02
1.479108e+08 +9.488522e-01 -8.684091e-02 +5.114785e-02 +8.684091e-02 +5.114785e-02 +8.684091e-02 +9.488522e-01 -8.684091e-02
1.493681e+08 +9.486213e-01 -8.808262e-02 +5.137875e-02 +8.808262e-02 +5.137875e-02 +8.808262e-02 +9.486213e-01 -8.808262e-02
1.531087e+08 +9.480172e-01 -9.124836e-02 +5.198280e-02 +9.124836e-02 +5.198280e-02 +9.124836e-02 +9.480172e-01 -9.124836e-02
1.552618e+08 +9.476622e-01 -9.305696e-02 +5.233783e-02 +9.305696e-02 +5.233783e-02 +9.305696e-02 +9.476622e-01 -9.305696e-02
1.584893e+08 +9.471200e-01 -9.575038e-02 +5.287999e-02 +9.575038e-02 +5.287999e-02 +9.575038e-02 +9.471200e-01 -9.575038e-02
1.613880e+08 +9.466230e-01 -9.815198e-02 +5.337700e-02 +9.815198e-02 +5.337700e-02 +9.815198e-02 +9.466230e-01 -9.815198e-02
1.640590e+08 +9.461567e-01 -1.003508e-01 +5.384332e-02 +1.003508e-01 +5.384332e-02 +1.003508e-01 +9.461567e-01 -1.003508e-01
1.677560e+08 +9.454981e-01 -1.033731e-01 +5.450193e-02 +1.033731e-01 +5.450193e-02 +1.033731e-01 +9.454981e-01 -1.033731e-01
1.698244e+08 +9.451230e-01 -1.050535e-01 +5.487699e-02 +1.050535e-01 +5.487699e-02 +1.050535e-01 +9.451230e-01 -1.050535e-01
1.743752e+08 +9.442813e-01 -1.087255e-01 +5.571872e-02 +1.087255e-01 +5.571872e-02 +1.087255e-01 +9.442813e-01 -1.087255e-01
1.757924e+08 +9.440146e-01 -1.098621e-01 +5.598543e-02 +1.098621e-01 +5.598543e-02 +1.098621e-01 +9.440146e-01 -1.098621e-01
1.812556e+08 +9.429661e-01 -1.142146e-01 +5.703391e-02 +1.142146e-01 +5.703391e-02 +1.142146e-01 +9.429661e-01 -1.142146e-01
1.819701e+08 +9.428266e-01 -1.147804e-01 +5.717339e-02 +1.147804e-01 +5.717339e-02 +1.147804e-01 +9.428266e-01 -1.147804e-01
1.883649e+08 +9.415541e-01 -1.198120e-01 +5.844590e-02 +1.198120e-01 +5.844590e-02 +1.198120e-01 +9.415541e-01 -1.198120e-01
1.884075e+08 +9.415455e-01 -1.198453e-01 +5.845453e-02 +1.198453e-01 +5.845453e-02 +1.198453e-01 +9.415455e-01 -1.198453e-01
1.949845e+08 +9.401917e-01 -1.249603e-01 +5.980832e-02 +1.249603e-01 +5.980832e-02 +1.249603e-01 +9.401917e-01 -1.249603e-01
1.958416e+08 +9.400119e-01 -1.256226e-01 +5.998806e-02 +1.256226e-01 +5.998806e-02 +1.256226e-01 +9.400119e-01 -1.256226e-01
2.018366e+08 +9.387337e-01 -1.302288e-01 +6.126632e-02 +1.302288e-01 +6.126632e-02 +1.302288e-01 +9.387337e-01 -1.302288e-01
2.035690e+08 +9.383575e-01 -1.315514e-01 +6.164254e-02 +1.315514e-01 +6.164254e-02 +1.315514e-01 +9.383575e-01 -1.315514e-01
2.089296e+08 +9.371741e-01 -1.356208e-01 +6.282593e-02 +1.356208e-01 +6.282593e-02 +1.356208e-01 +9.371741e-01 -1.356208e-01
2.116013e+08 +9.365735e-01 -1.376361e-01 +6.342652e-02 +1.376361e-01 +6.342652e-02 +1.376361e-01 +9.365735e-01 -1.376361e-01
2.162719e+08 +9.355065e-01 -1.411393e-01 +6.449352e-02 +1.411393e-01 +6.449352e-02 +1.411393e-01 +9.355065e-01 -1.411393e-01
2.199506e+08 +9.346509e-01 -1.438811e-01 +6.534912e-02 +1.438811e-01 +6.534912e-02 +1.438811e-01 +9.346509e-01 -1.438811e-01
2.238721e+08 +9.337242e-01 -1.467874e-01 +6.627581e-02 +1.467874e-01 +6.627581e-02 +1.467874e-01 +9.337242e-01 -1.467874e-01
2.286293e+08 +9.325800e-01 -1.502904e-01 +6.742005e-02 +1.502904e-01 +6.742005e-02 +1.502904e-01 +9.325800e-01 -1.502904e-01
2.317395e+08 +9.318201e-01 -1.525677e-01 +6.817994e-02 +1.525677e-01 +6.817994e-02 +1.525677e-01 +9.318201e-01 -1.525677e-01
2.376504e+08 +9.303504e-01 -1.568677e-01 +6.964960e-02 +1.568677e-01 +6.964960e-02 +1.568677e-01 +9.303504e-01 -1.568677e-01
2.398833e+08 +9.297866e-01 -1.584828e-01 +7.021339e-02 +1.584828e-01 +7.021339e-02 +1.584828e-01 +9.297866e-01 -1.584828e-01
2.470275e+08 +9.279513e-01 -1.636163e-01 +7.204871e-02 +1.636163e-01 +7.204871e-02 +1.636163e-01 +9.279513e-01 -1.636163e-01
2.483133e+08 +9.276159e-01 -1.645348e-01 +7.238408e-02 +1.645348e-01 +7.238408e-02 +1.645348e-01 +9.276159e-01 -1.645348e-01
2.567746e+08 +9.253711e-01 -1.705389e-01 +7.462892e-02 +1.705389e-01 +7.462892e-02 +1.705389e-01 +9.253711e-01 -1.705389e-01
2.570396e+08 +9.252997e-01 -1.707258e-01 +7.470029e-02 +1.707258e-01 +7.470029e-02 +1.707258e-01 +9.252997e-01 -1.707258e-01
2.660725e+08 +9.228292e-01 -1.770573e-01 +7.717075e-02 +1.770573e-01 +7.717075e-02 +1.770573e-01 +9.228292e-01 -1.770573e-01
2.669062e+08 +9.225975e-01 -1.776378e-01 +7.740246e-02 +1.776378e-01 +7.740246e-02 +1.776378e-01 +9.225975e-01 -1.776378e-01
2.754229e+08 +9.201954e-01 -1.835306e-01 +7.980460e-02 +1.835306e-01 +7.980460e-02 +1.835306e-01 +9.201954e-01 -1.835306e-01
2.774377e+08 +9.196178e-01 -1.849149e-01 +8.038219e-02 +1.849149e-01 +8.038219e-02 +1.849149e-01 +9.196178e-01 -1.849149e-01
2.851018e+08 +9.173886e-01 -1.901464e-01 +8.261139e-02 +1.901464e-01 +8.261139e-02 +1.901464e-01 +9.173886e-01 -1.901464e-01
2.883847e+08 +9.164184e-01 -1.923709e-01 +8.358164e-02 +1.923709e-01 +8.358164e-02 +1.923709e-01 +9.164184e-01 -1.923709e-01
2.951209e+08 +9.143989e-01 -1.969051e-01 +8.560109e-02 +1.969051e-01 +8.560109e-02 +1.969051e-01 +9.143989e-01 -1.969051e-01
2.997636e+08 +9.129850e-01 -2.000064e-01 +8.701500e-02 +2.000064e-01 +8.701500e-02 +2.000064e-01 +9.129850e-01 -2.000064e-01
3.054921e+08 +9.112159e-01 -2.038064e-01 +8.878409e-02 +2.038064e-01 +8.878409e-02 +2.038064e-01 +9.112159e-01 -2.038064e-01
3.115915e+08 +9.093029e-01 -2.078205e-01 +9.069710e-02 +2.078205e-01 +9.069710e-02 +2.078205e-01 +9.093029e-01 -2.078205e-01
3.162278e+08 +9.078288e-01 -2.108497e-01 +9.217120e-02 +2.108497e-01 +9.217120e-02 +2.108497e-01 +9.078288e-01 -2.108497e-01
3.238861e+08 +9.053566e-01 -2.158119e-01 +9.464344e-02 +2.158119e-01 +9.464344e-02 +2.158119e-01 +9.053566e-01 -2.158119e-01
3.273407e+08 +9.042264e-01 -2.180334e-01 +9.577361e-02 +2.180334e-01 +9.577361e-02 +2.180334e-01 +9.042264e-01 -2.180334e-01
3.366659e+08 +9.011299e-01 -2.239779e-01 +9.887008e-02 +2.239779e-01 +9.887008e-02 +2.239779e-01 +9.011299e-01 -2.239779e-01
3.388442e+08 +9.003971e-01 -2.253555e-01 +9.960288e-02 +2.253555e-01 +9.960288e-02 +2.253555e-01 +9.003971e-01 -2.253555e-01
3.499498e+08 +8.966063e-01 -2.323148e-01 +1.033937e-01 +2.323148e-01 +1.033937e-01 +2.323148e-01 +8.966063e-01 -2.323148e-01
3.507519e+08 +8.963291e-01 -2.328132e-01 +1.036709e-01 +2.328132e-01 +1.036709e-01 +2.328132e-01 +8.963291e-01 -2.328132e-01
3.630781e+08 +8.920099e-01 -2.404028e-01 +1.079901e-01 +2.404028e-01 +1.079901e-01 +2.404028e-01 +8.920099e-01 -2.404028e-01
3.637580e+08 +8.917686e-01 -2.408176e-01 +1.082314e-01 +2.408176e-01 +1.082314e-01 +2.408176e-01 +8.917686e-01 -2.408176e-01
3.758374e+08 +8.874272e-01 -2.481197e-01 +1.125728e-01 +2.481197e-01 +1.125728e-01 +2.481197e-01 +8.874272e-01 -2.481197e-01
3.781109e+08 +8.865991e-01 -2.494799e-01 +1.134009e-01 +2.494799e-01 +1.134009e-01 +2.494799e-01 +8.865991e-01 -2.494799e-01
3.890451e+08 +8.825682e-01 -2.559585e-01 +1.174318e-01 +2.559585e-01 +1.174318e-01 +2.559585e-01 +8.825682e-01 -2.559585e-01
3.930302e+08 +8.810797e-01 -2.582938e-01 +1.189203e-01 +2.582938e-01 +1.189203e-01 +2.582938e-01 +8.810797e-01 -2.582938e-01
4.027170e+08 +8.774197e-01 -2.639127e-01 +1.225803e-01 +2.639127e-01 +1.225803e-01 +2.639127e-01 +8.774197e-01 -2.639127e-01
4.085382e+08 +8.751923e-01 -2.672500e-01 +1.248077e-01 +2.672500e-01 +1.248077e-01 +2.672500e-01 +8.751923e-01 -2.672500e-01
4.168694e+08 +8.719688e-01 -2.719747e-01 +1.280312e-01 +2.719747e-01 +1.280312e-01 +2.719747e-01 +8.719688e-01 -2.719747e-01
4.246581e+08 +8.689183e-01 -2.763370e-01 +1.310817e-01 +2.763370e-01 +1.310817e-01 +2.763370e-01 +8.689183e-01 -2.763370e-01
4.315191e+08 +8.662023e-01 -2.801358e-01 +1.337977e-01 +2.801358e-01 +1.337977e-01 +2.801358e-01 +8.662023e-01 -2.801358e-01
4.414140e+08 +8.622391e-01 -2.855419e-01 +1.377609e-01 +2.855419e-01 +1.377609e-01 +2.855419e-01 +8.622391e-01 -2.855419e-01
4.466836e+08 +8.601069e-01 -2.883860e-01 +1.398931e-01 +2.883860e-01 +1.398931e-01 +2.883860e-01 +8.601069e-01 -2.883860e-01
4.588311e+08 +8.551364e-01 -2.948497e-01 +1.448636e-01 +2.948497e-01 +1.448636e-01 +2.948497e-01 +8.551364e-01 -2.948497e-01
4.623810e+08 +8.536697e-01 -2.967142e-01 +1.463303e-01 +2.967142e-01 +1.463303e-01 +2.967142e-01 +8.536697e-01 -2.967142e-01
4.769354e+08 +8.475921e-01 -3.042431e-01 +1.524079e-01 +3.042431e-01 +1.524079e-01 +3.042431e-01 +8.475921e-01 -3.042431e-01
4.786301e+08 +8.468779e-01 -3.051077e-01 +1.531221e-01 +3.051077e-01 +1.531221e-01 +3.051077e-01 +8.468779e-01 -3.051077e-01
4.954502e+08 +8.397189e-01 -3.135528e-01 +1.602811e-01 +3.135528e-01 +1.602811e-01 +3.135528e-01 +8.397189e-01 -3.135528e-01
4.957541e+08 +8.395884e-01 -3.137031e-01 +1.604116e-01 +3.137031e-01 +1.604116e-01 +3.137031e-01 +8.395884e-01 -3.137031e-01
5.128614e+08 +8.321807e-01 -3.220340e-01 +1.678193e-01 +3.220340e-01 +1.678193e-01 +3.220340e-01 +8.321807e-01 -3.220340e-01
5.153153e+08 +8.311084e-01 -3.232080e-01 +1.688916e-01 +3.232080e-01 +1.688916e-01 +3.232080e-01 +8.311084e-01 -3.232080e-01
5.308844e+08 +8.242519e-01 -3.305346e-01 +1.757481e-01 +3.305346e-01 +1.757481e-01 +3.305346e-01 +8.242519e-01 -3.305346e-01
5.356483e+08 +8.221362e-01 -3.327343e-01 +1.778638e-01 +3.327343e-01 +1.778638e-01 +3.327343e-01 +8.221362e-01 -3.327343e-01
5.495409e+08 +8.159217e-01 -3.390365e-01 +1.840783e-01 +3.390365e-01 +1.840783e-01 +3.390365e-01 +8.159217e-01 -3.390365e-01
5.567836e+08 +8.126568e-01 -3.422558e-01 +1.873432e-01 +3.422558e-01 +1.873432e-01 +3.422558e-01 +8.126568e-01 -3.422558e-01
5.688529e+08 +8.071804e-01 -3.475199e-01 +1.928196e-01 +3.475199e-01 +1.928196e-01 +3.475199e-01 +8.071804e-01 -3.475199e-01
5.787529e+08 +8.026570e-01 -3.517443e-01 +1.973430e-01 +3.517443e-01 +1.973430e-01 +3.517443e-01 +8.026570e-01 -3.517443e-01
5.888437e+08 +7.980193e-01 -3.559638e-01 +2.019807e-01 +3.559638e-01 +2.019807e-01 +3.559638e-01 +7.980193e-01 -3.559638e-01
6.015890e+08 +7.921252e-01 -3.611692e-01 +2.078748e-01 +3.611692e-01 +2.078748e-01 +3.611692e-01 +7.921252e-01 -3.611692e-01
6.095369e+08 +7.884307e-01 -3.643455e-01 +2.115693e-01 +3.643455e-01 +2.115693e-01 +3.643455e-01 +7.884307e-01 -3.643455e-01
6.253262e+08 +7.810520e-01 -3.704976e-01 +2.189480e-01 +3.704976e-01 +2.189480e-01 +3.704976e-01 +7.810520e-01 -3.704976e-01
6.309573e+08 +7.784087e-01 -3.726412e-01 +2.215913e-01 +3.726412e-01 +2.215913e-01 +3.726412e-01 +7.784087e-01 -3.726412e-01
6.500000e+08 +7.694302e-01 -3.796947e-01 +2.305698e-01 +3.796947e-01 +2.305698e-01 +3.796947e-01 +7.694302e-01 -3.796947e-01
6.531306e+08 +7.679488e-01 -3.808256e-01 +2.320512e-01 +3.808256e-01 +2.320512e-01 +3.808256e-01 +7.679488e-01 -3.808256e-01
6.760830e+08 +7.570481e-01 -3.888726e-01 +2.429519e-01 +3.888726e-01 +2.429519e-01 +3.888726e-01 +7.570481e-01 -3.888726e-01
6.998420e+08 +7.457061e-01 -3.967545e-01 +2.542939e-01 +3.967545e-01 +2.542939e-01 +3.967545e-01 +7.457061e-01 -3.967545e-01
7.244360e+08 +7.339239e-01 -4.044431e-01 +2.660761e-01 +4.044431e-01 +2.660761e-01 +4.044431e-01 +7.339239e-01 -4.044431e-01
7.498942e+08 +7.217054e-01 -4.119092e-01 +2.782946e-01 +4.119092e-01 +2.782946e-01 +4.119092e-01 +7.217054e-01 -4.119092e-01
7.762471e+08 +7.090564e-01 -4.191232e-01 +2.909436e-01 +4.191232e-01 +2.909436e-01 +4.191232e-01 +7.090564e-01 -4.191232e-01
8.035261e+08 +6.959858e-01 -4.260553e-01 +3.040142e-01 +4.260553e-01 +3.040142e-01 +4.260553e-01 +6.959858e-01 -4.260553e-01
8.317638e+08 +6.825047e-01 -4.326753e-01 +3.174953e-01 +4.326753e-01 +3.174953e-01 +4.326753e-01 +6.825047e-01 -4.326753e-01
8.609938e+08 +6.686273e-01 -4.389536e-01 +3.313727e-01 +4.389536e-01 +3.313727e-01 +4.389536e-01 +6.686273e-01 -4.389536e-01
8.912509e+08 +6.543702e-01 -4.448608e-01 +3.456298e-01 +4.448608e-01 +3.456298e-01 +4.448608e-01 +6.543702e-01 -4.448608e-01
9.225714e+08 +6.397531e-01 -4.503685e-01 +3.602469e-01 +4.503685e-01 +3.602469e-01 +4.503685e-01 +6.397531e-01 -4.503685e-01
9.549926e+08 +6.247984e-01 -4.554494e-01 +3.752016e-01 +4.554494e-01 +3.752016e-01 +4.554494e-01 +6.247984e-01 -4.554494e-01
9.885531e+08 +6.095311e-01 -4.600775e-01 +3.904689e-01 +4.600775e-01 +3.904689e-01 +4.600775e-01 +6.095311e-01 -4.600775e-01
1.023293e+09 +5.939788e-01 -4.642286e-01 +4.060212e-01 +4.642286e-01 +4.060212e-01 +4.642286e-01 +5.939788e-01 -4.642286e-01
1.059254e+09 +5.781715e-01 -4.678806e-01 +4.218285e-01 +4.678806e-01 +4.218285e-01 +4.678806e-01 +5.781715e-01 -4.678806e-01
1.096478e+09 +5.621416e-01 -4.710138e-01 +4.378584e-01 +4.710138e-01 +4.378584e-01 +4.710138e-01 +5.621416e-01 -4.710138e-01
1.135011e+09 +5.459232e-01 -4.736109e-01 +4.540768e-01 +4.736109e-01 +4.540768e-01 +4.736109e-01 +5.459232e-01 -4.736109e-01
1.174898e+09 +5.295523e-01 -4.756575e-01 +4.704477e-01 +4.756575e-01 +4.704477e-01 +4.756575e-01 +5.295523e-01 -4.756575e-01
1.216186e+09 +5.130664e-01 -4.771424e-01 +4.869336e-01 +4.771424e-01 +4.869336e-01 +4.771424e-01 +5.130664e-01 -4.771424e-01
1.258925e+09 +4.965038e-01 -4.780574e-01 +5.034962e-01 +4.780574e-01 +5.034962e-01 +4.780574e-01 +4.965038e-01 -4.780574e-01
1.303167e+09 +4.799037e-01 -4.783977e-01 +5.200963e-01 +4.783977e-01 +5.200963e-01 +4.783977e-01 +4.799037e-01 -4.783977e-01
1.348963e+09 +4.633057e-01 -4.781619e-01 +5.366943e-01 +4.781619e-01 +5.366943e-01 +4.781619e-01 +4.633057e-01 -4.781619e-01
1.396368e+09 +4.467494e-01 -4.773519e-01 +5.532506e-01 +4.773519e-01 +5.532506e-01 +4.773519e-01 +4.467494e-01 -4.773519e-01
1.445440e+09 +4.302737e-01 -4.759732e-01 +5.697263e-01 +4.759732e-01 +5.697263e-01 +4.759732e-01 +4.302737e-01 -4.759732e-01
1.496236e+09 +4.139172e-01 -4.740344e-01 +5.860828e-01 +4.740344e-01 +5.860828e-01 +4.740344e-01 +4.139172e-01 -4.740344e-01
1.548817e+09 +3.977169e-01 -4.715473e-01 +6.022831e-01 +4.715473e-01 +6.022831e-01 +4.715473e-01 +3.977169e-01 -4.715473e-01
1.603245e+09 +3.817088e-01 -4.685269e-01 +6.182912e-01 +4.685269e-01 +6.182912e-01 +4.685269e-01 +3.817088e-01 -4.685269e-01
1.659587e+09 +3.659268e-01 -4.649908e-01 +6.340732e-01 +4.649908e-01 +6.340732e-01 +4.649908e-01 +3.659268e-01 -4.649908e-01
1.717908e+09 +3.504031e-01 -4.609592e-01 +6.495969e-01 +4.609592e-01 +6.495969e-01 +4.609592e-01 +3.504031e-01 -4.609592e-01
1.778279e+09 +3.351673e-01 -4.564548e-01 +6.648327e-01 +4.564548e-01 +6.648327e-01 +4.564548e-01 +3.351673e-01 -4.564548e-01
1.840772e+09 +3.202469e-01 -4.515022e-01 +6.797531e-01 +4.515022e-01 +6.797531e-01 +4.515022e-01 +3.202469e-01 -4.515022e-01
1.905461e+09 +3.056665e-01 -4.461275e-01 +6.943335e-01 +4.461275e-01 +6.943335e-01 +4.461275e-01 +3.056665e-01 -4.461275e-01
1.972423e+09 +2.914483e-01 -4.403586e-01 +7.085517e-01 +4.403586e-01 +7.085517e-01 +4.403586e-01 +2.914483e-01 -4.403586e-01
2.041738e+09 +2.776116e-01 -4.342241e-01 +7.223884e-01 +4.342241e-01 +7.223884e-01 +4.342241e-01 +2.776116e-01 -4.342241e-01
2.113489e+09 +2.641728e-01 -4.277538e-01 +7.358272e-01 +4.277538e-01 +7.358272e-01 +4.277538e-01 +2.641728e-01 -4.277538e-01
2.187762e+09 +2.511456e-01 -4.209775e-01 +7.488544e-01 +4.209775e-01 +7.488544e-01 +4.209775e-01 +2.511456e-01 -4.209775e-01
2.264644e+09 +2.385412e-01 -4.139255e-01 +7.614588e-01 +4.139255e-01 +7.614588e-01 +4.139255e-01 +2.385412e-01 -4.139255e-01
2.344229e+09 +2.263677e-01 -4.066280e-01 +7.736323e-01 +4.066280e-01 +7.736323e-01 +4.066280e-01 +2.263677e-01 -4.066280e-01
2.426610e+09 +2.146311e-01 -3.991147e-01 +7.853689e-01 +3.991147e-01 +7.853689e-01 +3.991147e-01 +2.146311e-01 -3.991147e-01
2.511886e+09 +2.033347e-01 -3.914150e-01 +7.966653e-01 +3.914150e-01 +7.966653e-01 +3.914150e-01 +2.033347e-01 -3.914150e-01
2.600160e+09 +1.924797e-01 -3.835572e-01 +8.075203e-01 +3.835572e-01 +8.075203e-01 +3.835572e-01 +1.924797e-01 -3.835572e-01
2.691535e+09 +1.820650e-01 -3.755691e-01 +8.179350e-01 +3.755691e-01 +8.179350e-01 +3.755691e-01 +1.820650e-01 -3.755691e-01
2.786121e+09 +1.720877e-01 -3.674770e-01 +8.279123e-01 +3.674770e-01 +8.279123e-01 +3.674770e-01 +1.720877e-01 -3.674770e-01
2.884032e+09 +1.625432e-01 -3.593064e-01 +8.374568e-01 +3.593064e-01 +8.374568e-01 +3.593064e-01 +1.625432e-01 -3.593064e-01
2.985383e+09 +1.534252e-01 -3.510811e-01 +8.465748e-01 +3.510811e-01 +8.465748e-01 +3.510811e-01 +1.534252e-01 -3.510811e-01
3.090295e+09 +1.447260e-01 -3.428239e-01 +8.552740e-01 +3.428239e-01 +8.552740e-01 +3.428239e-01 +1.447260e-01 -3.428239e-01
3.198895e+09 +1.364368e-01 -3.345560e-01 +8.635632e-01 +3.345560e-01 +8.635632e-01 +3.345560e-01 +1.364368e-01 -3.345560e-01
3.311311e+09 +1.285476e-01 -3.262972e-01 +8.714524e-01 +3.262972e-01 +8.714524e-01 +3.262972e-01 +1.285476e-01 -3.262972e-01
3.427678e+09 +1.210477e-01 -3.180659e-01 +8.789523e-01 +3.180659e-01 +8.789523e-01 +3.180659e-01 +1.210477e-01 -3.180659e-01
3.548134e+09 +1.139255e-01 -3.098789e-01 +8.860745e-01 +3.098789e-01 +8.860745e-01 +3.098789e-01 +1.139255e-01 -3.098789e-01
3.672823e+09 +1.071689e-01 -3.017517e-01 +8.928311e-01 +3.017517e-01 +8.928311e-01 +3.017517e-01 +1.071689e-01 -3.017517e-01
3.801894e+09 +1.007655e-01 -2.936984e-01 +8.992345e-01 +2.936984e-01 +8.992345e-01 +2.936984e-01 +1.007655e-01 -2.936984e-01
3.935501e+09 +9.470219e-02 -2.857316e-01 +9.052978e-01 +2.857316e-01 +9.052978e-01 +2.857316e-01 +9.470219e-02 -2.857316e-01
4.073803e+09 +8.896604e-02 -2.778629e-01 +9.110340e-01 +2.778629e-01 +9.110340e-01 +2.778629e-01 +8.896604e-02 -2.778629e-01
4.216965e+09 +8.354386e-02 -2.701022e-01 +9.164561e-01 +2.701022e-01 +9.164561e-01 +2.701022e-01 +8.354386e-02 -2.701022e-01
4.365158e+09 +7.842244e-02 -2.624586e-01 +9.215776e-01 +2.624586e-01 +9.215776e-01 +2.624586e-01 +7.842244e-02 -2.624586e-01
4.518559e+09 +7.358866e-02 -2.549399e-01 +9.264113e-01 +2.549399e-01 +9.264113e-01 +2.549399e-01 +7.358866e-02 -2.549399e-01
4.677351e+09 +6.902953e-02 -2.475528e-01 +9.309705e-01 +2.475528e-01 +9.309705e-01 +2.475528e-01 +6.902953e-02 -2.475528e-01
4.841724e+09 +6.473227e-02 -2.403031e-01 +9.352677e-01 +2.403031e-01 +9.352677e-01 +2.403031e-01 +6.473227e-02 -2.403031e-01
5.011872e+09 +6.068434e-02 -2.331956e-01 +9.393157e-01 +2.331956e-01 +9.393157e-01 +2.331956e-01 +6.068434e-02 -2.331956e-01
5.188000e+09 +5.687349e-02 -2.262343e-01 +9.431265e-01 +2.262343e-01 +9.431265e-01 +2.262343e-01 +5.687349e-02 -2.262343e-01
5.370318e+09 +5.328780e-02 -2.194224e-01 +9.467122e-01 +2.194224e-01 +9.467122e-01 +2.194224e-01 +5.328780e-02 -2.194224e-01
5.559043e+09 +4.991570e-02 -2.127622e-01 +9.500843e-01 +2.127622e-01 +9.500843e-01 +2.127622e-01 +4.991570e-02 -2.127622e-01
5.754399e+09 +4.674600e-02 -2.062557e-01 +9.532540e-01 +2.062557e-01 +9.532540e-01 +2.062557e-01 +4.674600e-02 -2.062557e-01
5.956621e+09 +4.376792e-02 -1.999038e-01 +9.562321e-01 +1.999038e-01 +9.562321e-01 +1.999038e-01 +4.376792e-02 -1.999038e-01
6.165950e+09 +4.097108e-02 -1.937073e-01 +9.590289e-01 +1.937073e-01 +9.590289e-01 +1.937073e-01 +4.097108e-02 -1.937073e-01
6.382635e+09 +3.834548e-02 -1.876662e-01 +9.616545e-01 +1.876662e-01 +9.616545e-01 +1.876662e-01 +3.834548e-02 -1.876662e-01
6.606934e+09 +3.588159e-02 -1.817802e-01 +9.641184e-01 +1.817802e-01 +9.641184e-01 +1.817802e-01 +3.588159e-02 -1.817802e-01
6.839116e+09 +3.357026e-02 -1.760485e-01 +9.664297e-01 +1.760485e-01 +9.664297e-01 +1.760485e-01 +3.357026e-02 -1.760485e-01
7.079458e+09 +3.140277e-02 -1.704700e-01 +9.685972e-01 +1.704700e-01 +9.685972e-01 +1.704700e-01 +3.140277e-02 -1.704700e-01
7.328245e+09 +2.937079e-02 -1.650434e-01 +9.706292e-01 +1.650434e-01 +9.706292e-01 +1.650434e-01 +2.937079e-02 -1.650434e-01
7.585776e+09 +2.746641e-02 -1.597669e-01 +9.725336e-01 +1.597669e-01 +9.725336e-01 +1.597669e-01 +2.746641e-02 -1.597669e-01
7.852356e+09 +2.568211e-02 -1.546385e-01 +9.743179e-01 +1.546385e-01 +9.743179e-01 +1.546385e-01 +2.568211e-02 -1.546385e-01
8.128305e+09 +2.401074e-02 -1.496562e-01 +9.759893e-01 +1.496562e-01 +9.759893e-01 +1.496562e-01 +2.401074e-02 -1.496562e-01
8.413951e+09 +2.244554e-02 -1.448174e-01 +9.775545e-01 +1.448174e-01 +9.775545e-01 +1.448174e-01 +2.244554e-02 -1.448174e-01
8.709636e+09 +2.098008e-02 -1.401199e-01 +9.790199e-01 +1.401199e-01 +9.790199e-01 +1.401199e-01 +2.098008e-02 -1.401199e-01
9.015711e+09 +1.960831e-02 -1.355608e-01 +9.803917e-01 +1.355608e-01 +9.803917e-01 +1.355608e-01 +1.960831e-02 -1.355608e-01
9.332543e+09 +1.832448e-02 -1.311376e-01 +9.816755e-01 +1.311376e-01 +9.816755e-01 +1.311376e-01 +1.832448e-02 -1.311376e-01
9.660509e+09 +1.712318e-02 -1.268474e-01 +9.828768e-01 +1.268474e-01 +9.828768e-01 +1.268474e-01 +1.712318e-02 -1.268474e-01
1.000000e+10 +1.599929e-02 -1.226872e-01 +9.840007e-01 +1.226872e-01 +9.840007e-01 +1.226872e-01 +1.599929e-02 -1.226872e-01
